12

C	-5.004744079164233	2.9395061460684078	0.04041484623348917	
C	-4.199053729901863	4.142391858028762	0.007229346108768107	
C	-2.8209558732141256	3.959835452212964	-0.04484064658570806	
C	-4.357833668331707	1.6807784510844728	-0.049216130037554325	
C	-2.98184319238017	1.5107567378926727	0.019876761299874524	
C	-2.2497700537830743	2.7499183948417434	0.016444873140764267	
H	-6.058844856923578	2.9851042620778823	0.06734433819144256	
H	-4.737054219481503	4.952799193765027	0.08275921327961995	
H	-4.912263448563309	0.7855306254743554	-0.16199495612139042	
H	-2.5427093068838325	0.5649451446123486	0.088816475960474	
H	-1.1035618908390779	2.544354141445673	0.14101276074864183	
H	-2.1937286602249446	4.97029359211062	-0.09769333132964853	
