12

C	-5.003810427606539	2.90252347272446	-0.10955937304491635	
C	-4.226167459227455	4.089651602269407	0.09270244084180286	
C	-2.7713941594061313	4.062424872149507	-0.0017012460958757555	
C	-4.392380391483906	1.6733089711352633	0.09839224597822674	
C	-3.0023203139764765	1.5599949198269434	-0.015807304624493666	
C	-2.2334156743353044	2.6832414314350808	-0.034018119741023055	
H	-6.061180939940333	3.0196862316281106	-0.24407452642637945	
H	-4.637007811631176	5.0558320774313446	-0.07085226362184577	
H	-4.927878969269162	0.7917371918143943	0.07390035529535068	
H	-2.4484680667494567	0.521902621688495	-0.11924541476876703	
H	-1.1397005690237572	2.6287502653826516	0.036459632483106005	
H	-2.1517936512601437	4.92943718310585	-0.03375277774999137	
