12

C	-5.0288173920963075	2.9347855512146346	0.0000000000006906674507957003	
C	-4.222871293453777	4.117579870228372	-0.00000000000012470415934143708	
C	-2.7955666946830453	4.0110057140826685	-0.000000000001393692624255184	
C	-4.407463119881759	1.6454171727633915	0.0000000000004346443625906167	
C	-2.980158777573517	1.5388431081147522	-0.0000000000020850267467391856	
C	-2.1742125417430973	2.7216373213617686	0.000000000002487579143490092	
H	-6.113549651858732	3.015782359696615	-0.00000000000028669867360430076	
H	-4.695085539963464	5.0974868676814	0.00000000000008251406155545339	
H	-5.019970268745976	0.7465072915529708	-0.00000000000006370964555292618	
H	-2.507943443618061	0.5589366229960394	0.0000000000005943504341660785	
H	-1.0894802104919523	2.6406414908097693	-0.0000000000006927123487028791	
H	-2.1830610658902994	4.9099166294976175	0.00000000000035678874559797255	
