12

C	-4.99247	2.93207	-0	
C	-4.20705	4.08474	-0	
C	-2.8160899999999995	3.98088	-0	
C	-4.38694	1.67554	-0	
C	-2.99598	1.57168	0	
C	-2.21056	2.7243500000000003	0	
H	-6.07618	3.01299	-0	
H	-4.67882	5.06373	-0	
H	-4.99887	0.77748	-0	
H	-2.52421	0.5927	0	
H	-1.12685	2.64343	0	
H	-2.20416	4.87895	-0	
12

C	-5.019921206181629	2.93412255212609	-0.000000000000004999842531549525	
C	-4.218995326626715	4.109542249414283	-0.00000000000000423040305332175	
C	-2.80059124854359	4.0036310658917476	-0.0000000000000006387463447290387	
C	-4.402438845437655	1.6527922729298865	0.000000000000002167266565466534	
C	-2.9840347945543115	1.546881041824949	0.000000000000007571839313800956	
C	-2.1831089230371847	2.7223001514485516	-0.0000000000000007060858089061102	
H	-6.100732077381354	3.014824118239802	-0.0000000000000002747003910922468	
H	-4.689520776870769	5.085901201315137	0.000000000000001926489905297225	
H	-5.01273830101689	0.7571367194559578	-0.0000000000000007552445628430753	
H	-2.5135131291938397	0.5705240131511237	-0.00000000000000044081076805197817	
H	-1.1022981397743363	2.6415973626240215	0.00000000000000027366018847398206	
H	-2.190287231381725	4.899287251578445	0.00000000000000010657748745502796	
12

C	-5.027711477632422	2.934702695338038	0.000000000000022602784808410766	
C	-4.222390354167151	4.116581111408103	0.00000000000000011884537125259892	
C	-2.7961906846666498	4.010089582281808	-0.000000000000011446551877004583	
C	-4.406838829910926	1.6463331105160286	-0.000000000000003175089049330433	
C	-2.98063994178693	1.5398417067163181	-0.000000000000034225370862737303	
C	-2.175318476758991	2.721719750213461	0.000000000000025784654729547542	
H	-6.110679040333367	3.0155674815814963	-0.000000000000006829178227636324	
H	-4.693834361781896	5.094895380199516	-0.000000000000007522505438024624	
H	-5.018348524265289	0.7488851742286943	0.000000000000002585509085376102	
H	-2.509194400993619	0.5615288889892136	0.00000000000001573606274639027	
H	-1.0923508703468674	2.6408554853240807	-0.000000000000004650071464773638	
H	-2.1846830373558905	4.907539633203241	0.0000000000000010209101785294962	
12

C	-5.0288159964743535	2.9347874634608733	-0.00000000000012203134589512725	
C	-4.222867251480808	4.117577303512924	0.000000000000022079637143135465	
C	-2.7955687041604285	4.011001760653201	0.00000000000013353160245593218	
C	-4.407461426026618	1.6454221804938218	-0.00000000000001743407320443559	
C	-2.980162755295527	1.5388465722360007	0.00000000000024648116459735405	
C	-2.1742140822786316	2.72163632128503	-0.00000000000026428475298774737	
H	-6.113098229523598	3.015748162379893	0.000000000000047182511299376617	
H	-4.694902196027575	5.097070222554813	-0.000000000000010165805395214907	
H	-5.019721353320425	0.7468894808407681	-0.000000000000002128398607394541	
H	-2.5081294537594214	0.5593529694554649	-0.00000000000007054921815456363	
H	-1.0899319356297141	2.64067447138246	0.00000000000007088826720650295	
H	-2.183306616022894	4.909533091744745	-0.000000000000033569588457818986	
