12

C	-4.999450814124543	2.932594020433223	-0.00000000000000007778630904039294	
C	-4.210084087704289	4.091050161696681	0.000000000000000037643060070970356	
C	-2.8121508456000157	3.9866682282940706	0.0000000000000000007237867682963307	
C	-4.3908792399511025	1.6697556338176807	0.00000000000000008600070600458349	
C	-2.992945688666799	1.565373631441385	0.0000000000000001273375041023413	
C	-2.203579062799801	2.7238299814427283	-0.000000000000000027464799147528558	
H	-6.086192338913359	3.0137376986278808	-0.0000000000000000577182067225854	
H	-4.683179394161848	5.072769460645746	-0.00000000000000004215899313745554	
H	-5.004524287211285	0.7691815451293207	0.000000000000000021785234758017977	
H	-2.5198490993294747	0.5836539826852627	0.000000000000000008225370850132636	
H	-1.116837711811391	2.6426832139812215	-0.000000000000000024486268095289257	
H	-2.1985074297260856	4.887242441804798	-0.00000000000000005210108641109041	
