12

C	-4.99247	2.93207	-0	
C	-4.20705	4.08474	-0	
C	-2.8160899999999995	3.98088	-0	
C	-4.38694	1.67554	-0	
C	-2.99598	1.57168	0	
C	-2.21056	2.7243500000000003	0	
H	-6.07618	3.01299	-0	
H	-4.67882	5.06373	-0	
H	-4.99887	0.77748	-0	
H	-2.52421	0.5927	0	
H	-1.12685	2.64343	0	
H	-2.20416	4.87895	-0	
12

C	-4.996213380198108	2.9323496777183804	-0.00000000000000004057868095473066	
C	-4.208674759467735	4.088123321131604	-0.00000000000000006828682373663597	
C	-2.813980323943101	3.983983862824579	-0.00000000000000000962945717939785	
C	-4.389048416977563	1.6724386261484092	0.000000000000000004048510929134494	
C	-2.994356328208344	1.5682994711299347	0.00000000000000008031120711900079	
C	-2.2068165753538183	2.724070769243541	0.000000000000000047195500222058685	
H	-6.077366237413043	3.013078454098433	-0.000000000000000010869633754224257	
H	-4.679336011213529	5.064799277541257	-0.000000000000000005233744928071013	
H	-4.999540234087018	0.7764963607328961	-0.0000000000000000017277127880001378	
H	-2.5236928412821573	0.5916276858703934	0.000000000000000016631925111948484	
H	-1.1256637643301186	2.6433415140262806	-0.0000000000000000035629826208427266	
H	-2.2034911275254627	4.87993097953429	-0.000000000000000008298107420239838	
12

C	-4.9979368790553655	2.9324799742437153	-0.00000000000000009480429811386779	
C	-4.209426748011304	4.0896830428842765	-0.00000000000000003114006110334522	
C	-2.813004570487657	3.9854144644867002	-0.000000000000000023392456775748674	
C	-4.3900249072007815	1.6710092471960434	0.000000000000000013343755796709492	
C	-2.9936036047165593	1.5667408384022188	0.00000000000000010410838608892954	
C	-2.2050929391339578	2.723942868762591	0.000000000000000054300304051671685	
H	-6.0802837114032755	3.0132961162990726	0.000000000000000006289733380497107	
H	-4.680605522624783	5.067432165579447	-0.000000000000000006037729029093808	
H	-5.001187179735392	0.774078862073514	0.0000000000000000005623494825091414	
H	-2.5224226506439207	0.5889923630415126	0.000000000000000022108440809156078	
H	-1.1227462952936016	2.643123769453187	-0.00000000000000003700670366791366	
H	-2.2018449916933998	4.882346287577721	-0.000000000000000008331720919503907	
12

C	-4.999688709564137	2.9326124063686434	-0.000000000000000010955323573923058	
C	-4.2101859074894525	4.091266116663007	-0.00000000000000004326207855292004	
C	-2.812017954269694	3.986866555805371	-0.00000000000000011749580217763214	
C	-4.391012309765431	1.669558392582509	0.00000000000000007819956344763975	
C	-2.9928436313213314	1.5651587407566343	0.00000000000000007280353946397032	
C	-2.203341044917444	2.723812975329958	0.00000000000000016236062092189335	
H	-6.085681832910406	3.0136991612188533	-0.00000000000000006972774972025148	
H	-4.6829562202499915	5.072306994220675	-0.00000000000000003385245447217459	
H	-5.004235917740805	0.7696044181534037	0.00000000000000003111543560141165	
H	-2.520071449344628	0.5841149136969255	0.000000000000000004713799035175475	
H	-1.117348185739392	2.642721038872008	-0.0000000000000000450448537098701	
H	-2.1987968366872823	4.886818286332011	-0.00000000000000002885469626331911	
12

C	-4.999530352209291	2.9326004779420436	0.00000000000000003839646327284139	
C	-4.210120965517701	4.09112331923296	-0.00000000000000007122410892346408	
C	-2.812103469598356	3.986735246765597	-0.00000000000000006998854803121672	
C	-4.390926812294153	1.669689030109409	0.000000000000000023725970896444755	
C	-2.992908594480201	1.5653008490487417	0.00000000000000019549813268261384	
C	-2.203499467978873	2.7238242610121763	0.00000000000000002112483128487146	
H	-6.086181760477139	3.0137366992193173	-0.00000000000000006141442557839038	
H	-4.683174126841053	5.072759016936949	-0.000000000000000035656930746800125	
H	-5.0045179239019335	0.7691905451392054	0.000000000000000032939005656893325	
H	-2.51985401972636	0.5836637728012315	0.000000000000000005810931033178436	
H	-1.1168482774301292	2.6426838837275244	-0.000000000000000037984761860517336	
H	-2.1985142295448044	4.887232898064843	-0.00000000000000004122655968645459	
