12

C	-1.3909549999999995	0.10385974192388683	-0	
C	-0.6055349999999998	1.2565297419238868	-0	
C	0.7854250000000004	1.152669741923887	-0	
C	-0.7854249999999999	-1.1526702580761128	-0	
C	0.6055350000000003	-1.256530258076113	0	
C	1.390955	-0.10386025807611292	0	
H	-2.474665	0.18477974192388708	-0	
H	-1.0773050000000002	2.235519741923887	-0	
H	-1.397355	-2.050730258076113	-0	
H	1.0773050000000002	-2.235510258076113	0	
H	2.4746650000000003	-0.18478025807611315	0	
H	1.3973550000000003	2.050739741923887	-0	
12

C	-1.391654824616225	0.10368076955920542	0.0003300830959979504	
C	-0.605187933243352	1.2568529016771848	-0.00024114251401630819	
C	0.7855670561616875	1.152586336925903	-0.000172129746265307	
C	-0.7851892834495251	-1.152634211888453	-0.00016466536393286397	
C	0.6054340303194568	-1.255958503493046	0.00004816891253228801	
C	1.3906140959408861	-0.10405821916974606	-0.00008108342908286	
H	-2.4754178030748077	0.18395039456162715	0.00003711516496834908	
H	-1.076077129146409	2.2329483389508558	0.002000575148463927	
H	-1.3946971926813265	-2.0517404873566565	-0.0018258460722554366	
H	1.0783205189616631	-2.2343016433317917	0.0021186689815507927	
H	2.473635312041473	-0.18542220010724075	0.0007351817612589131	
H	1.3992036203622469	2.048976075664633	0.0002799731768010303	
12

C	-1.392357163741258	0.10350213798269003	0.0006600922052796088	
C	-0.6048421417274623	1.2571776964937746	-0.0004821751528000029	
C	0.7857107536508695	1.1525052722824207	-0.0003442762981395402	
C	-0.7849553718019731	-1.1526004441157343	-0.00032937491406842784	
C	0.6053344285387585	-1.2553896094623207	0.00009638750501303757	
C	1.3902761496893954	-0.1042562153463664	-0.00016214272373074712	
H	-2.476181367069543	0.18312234609143785	0.00007439077454177749	
H	-1.0748581062183302	2.230396124185549	0.004000610674302859	
H	-1.3920476673716828	-2.052760580567143	-0.0036511813592730842	
H	1.0793402702161823	-2.2331037126609035	0.004236785624650969	
H	2.4726188986834723	-0.18606490093803305	0.0014702781137083897	
H	1.4010581873438954	2.047223451255402	0.0005598720481155405	
12

C	-1.3930616121513306	0.10332396727130501	0.0009899529589074351	
C	-0.6044976252865508	1.2575031131098262	-0.0007229905852307552	
C	0.7858560879244195	1.1524264675209643	-0.0005164566032431938	
C	-0.784723426406965	-1.152568814514575	-0.000494172594126274	
C	0.6052362954852551	-1.254823800249971	0.00014470573583101148	
C	1.3899411983228367	-0.10445406257018452	-0.00024315422990516292	
H	-2.4769553908406325	0.18229606869981557	0.00011198635844467758	
H	-1.0736520330747672	2.2278724375532613	0.005999602755000436	
H	-1.3894084400094653	-2.053791213380346	-0.005475498828039987	
H	1.0803636565451904	-2.2319171384930825	0.00635379802938823	
H	2.4716179709228836	-0.1867082947386303	0.0022052064805086467	
H	1.4029184066719094	2.0454837493005322	0.0008396239846882895	
12

C	-1.393767767511803	0.10314637494851324	0.0013195906309218935	
C	-0.6041543776141202	1.2578281340459183	-0.0009634841380454701	
C	0.7860030556498401	1.1523498447158549	-0.0006886877338725316	
C	-0.7844936109642158	-1.152539185753451	-0.0006591020953068877	
C	0.6051397322518316	-1.2542613026794673	0.0001931738327413489	
C	1.3896092810114955	-0.10465157588878862	-0.000324094773262222	
H	-2.4777395452470334	0.18147203042510118	0.00015006046941851405	
H	-1.0724630508288284	2.225386685235965	0.007997084376251604	
H	-1.3867814911842593	-2.0548330178914287	-0.007298295175746416	
H	1.0813900620228645	-2.230742555672719	0.008469154725342622	
H	2.4706347027538667	-0.1873523135520495	0.0029398870459314253	
H	1.404783962418759	2.0437588095690913	0.0011191579740933363	
12

C	-1.394475230808471	0.10296947583249363	0.0016489301648270175	
C	-0.6038123876700865	1.2581517415249455	-0.0012035538805174946	
C	0.786151654922266	1.152275328900209	-0.0008609868684843452	
C	-0.7842660915339489	-1.1525114239658443	-0.0008242068483370984	
C	0.6050448400556414	-1.2537023460368142	0.00024184228296769074	
C	1.3892804396322063	-0.1048485696699472	-0.00040494165580229807	
H	-2.4785334729800796	0.18065069492903013	0.00018877062082972457	
H	-1.0712953198893793	2.2229482968941188	0.009992625969711998	
H	-1.384168762509515	-2.0558865776548565	-0.009119070773728921	
H	1.0824188523052263	-2.2295805610416912	0.010582304661090189	
H	2.469671223473786	-0.18799688669595505	0.003674242661097272	
H	1.4066545144686209	2.042050426518363	0.0013984045501237007	
12

C	-1.3951836067660786	0.10279338188464843	0.0019778962013019836	
C	-0.6034716412378052	1.2584729216690544	-0.0014431006760776896	
C	0.7863018854773512	1.1522028484609366	-0.0010333712722451235	
C	-0.7840410365319506	-1.1524853992874324	-0.0009895300177979178	
C	0.6049517200923492	-1.2531471619565246	0.00029076182249699445	
C	1.3889547193606042	-0.10504485784401364	-0.00048567264989363384	
H	-2.479336788500871	0.17983252128132937	0.000228273224659778	
H	-1.0701529982951667	2.2205666795589285	0.011985835635863907	
H	-1.3815721531605385	-2.0569524228903466	-0.010937329579257369	
H	1.083449375001809	-2.2284317131847065	0.012692697194999924	
H	2.468729610204168	-0.18864194017153882	0.004408198727710456	
H	1.408529696058743	2.040360344995454	0.0016772957110791843	
12

C	-1.3958925042155566	0.10261820211382831	0.0023064131069681745	
C	-0.6031321225829623	1.2587906687419275	-0.0016820281993370795	
C	0.7864537488981026	1.152132335514828	-0.001205858276695391	
C	-0.7838186167081552	-1.1524609863744868	-0.0011551144985610098	
C	0.6048604733801908	-1.2525959842968153	0.00033998342443238336	
C	1.3886321692211803	-0.10524025414122667	-0.000566265989835972	
H	-2.4801490780860433	0.17901796375778276	0.0002687235296874125	
H	-1.0690402193586446	2.2182511703122016	0.013976358935783247	
H	-1.378993516590445	-2.0580310258852563	-0.012752579017102661	
H	1.0844809601305514	-2.2272965323350737	0.014799782088918299	
H	2.467811880936195	-0.18928739610402728	0.005141683061974017	
H	1.410409111412021	2.038690256134156	0.001955764827312931	
12

C	-1.3966015364191124	0.10244404252192654	0.0026344050041077647	
C	-0.6027938162081463	1.2591039894579854	-0.0019202429165189828	
C	0.786607248813787	1.152063726263865	-0.0013784652585806943	
C	-0.7835990051047965	-1.1524380648962838	-0.0013210029140870731	
C	0.6047712005980747	-1.2520490489983862	0.0003895582862678022	
C	1.3883128426706535	-0.10543457233529328	-0.0006467003606833979	
H	-2.480969899984719	0.17820747165058828	0.00031027555967987834	
H	-1.067961068571574	2.2160109876630734	0.015963878229421413	
H	-1.3764346574753774	-2.059122796674962	-0.014564329833840829	
H	1.0855129206551557	-2.226175500439227	0.016903009506305258	
H	2.466919987151185	-0.189933172142568	0.005874625735634349	
H	1.4122923334771584	2.0370417934656126	0.002233746538500146	
12

C	-1.3973103214262335	0.10227100598350153	0.0029617958016340037	
C	-0.6024567086540941	1.2594119075164176	-0.0021576540268138066	
C	0.786762391088144	1.1519969613269636	-0.0015512096179125985	
C	-0.7833823769896834	-1.152416519995917	-0.0014872376162854725	
C	0.6046840019166186	-1.2515065939267132	0.0004395378159530691	
C	1.3879967981693881	-0.10562762648982224	-0.0007269548844463764	
H	-2.4817987846873604	0.17740148909068618	0.00035308205142883255	
H	-1.066919559474439	2.2138551810165907	0.017948111527372166	
H	-1.373897328928258	-2.060228079067038	-0.016372095928521905	
H	1.0865445531048339	-2.225069061377805	0.01900183001635176	
H	2.4660558065524296	-0.19057918086109854	0.006606958895797321	
H	1.4141789018015511	2.035416529275337	0.002511176641237228	
12

C	-1.3980184824086372	0.10209919213504888	0.0032885092271162653	
C	-0.6021207904246051	1.2597134683373243	-0.0023941733609310757	
C	0.7869191839901376	1.1519319860405393	-0.0017241087553545678	
C	-0.783168909782018	-1.1523962427402417	-0.0016538606870246286	
C	0.6045989768251144	-1.2509688586982155	0.0004899736166292265	
C	1.3876840997313213	-0.10581923120644388	-0.0008070091037573293	
H	-2.482635235306219	0.17660045488187331	0.0003972943924879414	
H	-1.0659196081714388	2.2117925775937066	0.019928810814260574	
H	-1.371383229809223	-2.0613471467550477	-0.01817539415877855	
H	1.087575138275637	-2.2239776213401496	0.021095694605557228	
H	2.4652211360162797	-0.19122532916888688	0.007338616564691777	
H	1.4160683206037679	2.033815971296308	0.0027879919679855486	
12

C	-1.3987256479727164	0.10192869727599604	0.0036144688598027026	
C	-0.6017860579206323	1.2600077437613602	-0.0026297152393327545	
C	0.7870776383569359	1.1518687507428922	-0.0018971800489407838	
C	-0.7829587829598175	-1.1523771305419486	-0.0018209139409223441	
C	0.6045162239537231	-1.2504360844908347	0.0005409174699151692	
C	1.3873748174487588	-0.10600920187385918	-0.0008868429630886528	
H	-2.483478728067173	0.17580480234602291	0.00044306255849328047	
H	-1.0649650078599002	2.2098317296150842	0.02190575987430798	
H	-1.3688940022562788	-2.0624801997195576	-0.019973744126915542	
H	1.0886039420118163	-2.2229015493490314	0.023184054698189693	
H	2.464417684803207	-0.19187151773330627	0.008069534420546387	
H	1.4179600569229138	2.0322415595581127	0.0030641302573132098	
12

C	-1.3994314524489542	0.10175961428038431	0.003939598164570129	
C	-0.6014525151885224	1.260293836314217	-0.0028641963002379017	
C	0.7872377677429034	1.1518072110338753	-0.002070440830230823	
C	-0.7827521779472999	-1.1523590875495953	-0.0019884389291357748	
C	0.604435840891492	-1.2499085138390809	0.0005924213176457856	
C	1.3870690279881466	-0.10619735491710149	-0.0009664367876342068	
H	-2.484328712912951	0.1750149591778042	0.0004905350499731178	
H	-1.0640594056923214	2.2079808664994713	0.02387877174050879	
H	-1.3664312294648997	-2.063627360957286	-0.02176666794955721	
H	1.0896302160656828	-2.2218411779306613	0.025266362186969243	
H	2.463647068068922	-0.19251764041948558	0.008799649560947451	
H	1.4198535389169253	2.0306946634905216	0.0033395300164321363	
12

C	-1.4001355361584038	0.10159203252071468	0.004263820526738391	
C	-0.601120175659906	1.2605708834026095	-0.003097535291674266	
C	0.7873995885504161	1.1517473280066377	-0.002243908359991217	
C	-0.7825492779813195	-1.1523420250044796	-0.0021564769438791875	
C	0.6043579239988545	-1.2493863904165232	0.0006445372419717428	
C	1.386766815055278	-0.10638350804420924	-0.0010457712599915468	
H	-2.4851846142149965	0.17423134731098386	0.000539858828594685	
H	-1.063206279846377	2.2062478476947183	0.025847685700374084	
H	-1.3639964337245134	-2.0647886735622962	-0.023553690014435174	
H	1.090653199033381	-2.220796803922658	0.02734206947519527	
H	2.4629108007147287	-0.19316358375029635	0.009528900250226253	
H	1.4217481543433674	2.029176579321641	0.0036141303770282486	
12

C	-1.4008375456557123	0.10142603780487447	0.004587059287677018	
C	-0.6007890641499295	1.2608380619882993	-0.003329652811165416	
C	0.7875631201405651	1.15168906845052	-0.00241759980349607	
C	-0.782350267956621	-1.1523258615624963	-0.0023250690233862165	
C	0.6042825682150751	-1.2488699588059946	0.0006973174437362971	
C	1.3864682698260982	-0.10656748048957551	-0.0011248273948006881	
H	-2.486045831592113	0.1734543827948944	0.0005911792528134672	
H	-1.0624089136167054	2.204640109610899	0.02781236366399733	
H	-1.3615910747170117	-2.0659640981778193	-0.02533433672802341	
H	1.0916721173632797	-2.2197686894169033	0.029410629531501673	
H	2.462210291616438	-0.1938092263888981	0.0102572256525972	
H	1.4236432492358957	2.0276885277800245	0.003887870945353358	
12

C	-1.4015371339240568	0.10126171236160625	0.004909237780885251	
C	-0.6004592188155818	1.2610945930445883	-0.003560471008468056	
C	0.7877283849217989	1.1516324050243185	-0.0025915322055434925	
C	-0.782155334249911	-1.1523105235787663	-0.0024942559570241447	
C	0.6042098668666465	-1.248359464250259	0.0007508142190475217	
C	1.3861734913342743	-0.10674909326122145	-0.0012035865115126645	
H	-2.486911740833824	0.17268447568013232	0.000644640012927255	
H	-1.0616703703604324	2.2031646145094963	0.029772686082400673	
H	-1.3592165480829357	-2.0671535108365253	-0.027108136257873654	
H	1.092686186433823	-2.218757062834469	0.031471495958352816	
H	2.461546838267788	-0.19445443864941442	0.010984565552957778	
H	1.4255381267887424	2.026231652117547	0.0041606916476349285	
12

C	-1.4022339605575187	0.10109913482324606	0.0052302793687573	
C	-0.6001306930328069	1.2613397458378306	-0.003789913253818273	
C	0.787895408414647	1.1515773163993925	-0.0027657224652893595	
C	-0.7819646645227375	-1.1522959453534973	-0.002664078290267235	
C	0.6041399114752014	-1.2478551523864045	0.0008050799339875553	
C	1.3858825868135138	-0.10692816938887371	-0.0012820302054872281	
H	-2.4877816949254483	0.17192202991287073	0.0007003830655719347	
H	-1.0609934693534024	2.2018278014442965	0.031728547443486604	
H	-1.3568741842589385	-2.0683567012045705	-0.028874618273584875	
H	1.0936946116979929	-2.2177621201226234	0.03352412307519231	
H	2.4609216218817043	-0.19509908203905105	0.011710860067480795	
H	1.4274320464604557	2.0248070164595453	0.004432532571896621	
12

C	-1.402927691936351	0.1009383801982076	0.005550107480049165	
C	-0.5998035571706692	1.261572842012012	-0.0040179037749751905	
C	0.7880642192908193	1.1515237873722188	-0.0029401873110027365	
C	-0.7817784475033444	-1.1522820693377673	-0.0028345763292373944	
C	0.604072791561431	-1.2473572689706085	0.0008601669974236678	
C	1.3855956719977611	-0.1071045341660938	-0.001360140317621068	
H	-2.488655025171796	0.1711674432378879	0.000758548567736813	
H	-1.0603807627372879	2.2006355395995376	0.03367985138518927	
H	-1.3545652475914562	-2.0695733712450566	-0.03063331369042564	
H	1.0946965898905892	-2.216784026066304	0.035567966017067514	
H	2.460335702960249	-0.19574300883244483	0.012436049345950587	
H	1.4293242233047745	2.0234156044851392	0.004703333807339842	
12

C	-1.4036180013794537	0.10077951985649565	0.005868645647827662	
C	-0.599477900226944	1.261793259352399	-0.004244367269503404	
C	0.7882348493849598	1.1514718089462141	-0.0031149432748500193	
C	-0.7815968727478602	-1.1522688462981516	-0.003005790144524889	
C	0.6040085944473014	-1.2468660595917211	0.000916127831887078	
C	1.3853128713739526	-0.10727801538821231	-0.0014378989027421562	
H	-2.48953104241696	0.17042110710911143	0.000819274810407772	
H	-1.0598345141558418	2.1995930852195156	0.03562650550586044	
H	-1.3522909357253718	-2.0708031343110327	-0.03238375441958443	
H	1.0956913102942045	-2.2158229157059908	0.03760248084942348	
H	2.4597900173724527	-0.19638606168327086	0.013160073268224113	
H	1.4312138275374526	2.0220583184431673	0.004973035282478328	
12

C	-1.4043045692744236	0.10062262152817973	0.006185817547813001	
C	-0.599153831304212	1.2620004351895393	-0.00446922849777414	
C	0.7884073336778603	1.1514213783828104	-0.0032900066678138093	
C	-0.7814201303813199	-1.1522562354394297	-0.0031777595740101355	
C	0.6039474050574457	-1.246381769373897	0.0009730148424992105	
C	1.3850343183844442	-0.10744844358612247	-0.0015152881970154754	
H	-2.490409038354891	0.16968340660445155	0.0008826981519451987	
H	-1.0593566793189257	2.198705042585419	0.03756841593890517	
H	-1.350052379265537	-2.072045514671254	-0.034125473128888945	
H	1.0966779560593325	-2.214878895853726	0.03962712469962729	
H	2.45928537296804	-0.19702807327631663	0.013882871137216611	
H	1.433099984346052	2.020735978506234	0.0052415766032442405	
12

C	-1.404987083185605	0.10046774931483973	0.006501547037026378	
C	-0.5988314809119886	1.2621938694178463	-0.004692411862212391	
C	0.7885817102500166	1.1513724992219283	-0.003465393554855661	
C	-0.7812484108191726	-1.15224420448496	-0.0033505242244199268	
C	0.6038893057204864	-1.2459046426690394	0.0010308803839433464	
C	1.3847601555769802	-0.10761565225526257	-0.0015922905846141528	
H	-2.4912882869231083	0.16895472034778286	0.0009489529513618148	
H	-1.0589488886570666	2.197975329339621	0.039505481759335076	
H	-1.3478506417091027	-2.0732999474753275	-0.0358580030178688	
H	1.0976557055745872	-2.2139520466986795	0.041641355905669426	
H	2.458822446749789	-0.1976688660228653	0.014604381370861544	
H	1.4349817739470343	2.0194493224619046	0.005508896892303417	
12

C	-1.4056652379406522	0.10031496371391349	0.006815758192653067	
C	-0.5985110020625517	1.2623731270681755	-0.004913840980414458	
C	0.7887580202045157	1.1513251812722043	-0.0036411197304304266	
C	-0.7810819044700963	-1.1522327297144432	-0.00352412347136415	
C	0.6038343759709407	-1.2454349227399582	0.0010897767254923207	
C	1.384490534700497	-0.10777947807916424	-0.0016688885639202986	
H	-2.4921680457763897	0.16823542043643527	0.0010181715016902074	
H	-1.0586124324368507	2.1974071468757272	0.041437589314903135	
H	-1.345686719643386	-2.074565779159862	-0.03758087761083913	
H	1.0986237338817695	-2.213042423493714	0.043644634182335024	
H	2.458401782623584	-0.19830825180204206	0.01532454119553868	
H	1.4368582318936238	2.018199005738807	0.005774934630816432	
12

C	-1.4063387356962163	0.10016432165570721	0.007128375351029851	
C	-0.5981925711405984	1.2625378403988758	-0.005133438259428741	
C	0.7889363075585701	1.1512794405714692	-0.0038172006944579896	
C	-0.7809208014210904	-1.152221795959143	-0.0036985964576168946	
C	0.6037826923523651	-1.244972851435159	0.001149756014116775	
C	1.384225616745395	-0.10793976114704869	-0.0017450647135249546	
H	-2.4930475578354323	0.16752587237329805	0.0010904839636474634	
H	-1.0583482485629463	2.1970029562170645	0.04336460657058913	
H	-1.343561543202624	-2.0758422682944935	-0.03929363057150544	
H	1.0995812141307235	-2.2121500583135965	0.04563642080499372	
H	2.4580237897413566	-0.19894603175048373	0.016043286343482264	
H	1.4387283496369285	2.0169856017634435	0.006039627503863674	
12

C	-1.407007285985648	0.10001587654963061	0.007439323146698366	
C	-0.5978763885281397	1.262687710479804	-0.005351124478690798	
C	0.7891166191032952	1.1512352993181192	-0.003993651628855459	
C	-0.7807652911059634	-1.1522113965549137	-0.003873982089425688	
C	0.6037343282224077	-1.2445186688562304	0.0012108702357119417	
C	1.3839655719272566	-0.10809634516508268	-0.0018208016582982483	
H	-2.4939260529039506	0.1668264350014664	0.0011660182997945726	
H	-1.0581569132513586	2.196764459724327	0.0452863775571608	
H	-1.341475976775306	-2.0771285868603395	-0.04099579554232111	
H	1.1005273190687526	-2.2112749618747727	0.04761617881100181	
H	2.457688741448231	-0.19958199610218344	0.01676055075666918	
H	1.4405910753394273	2.0158096026417356	0.006302912250736894	
12

C	-1.4076706057516608	0.09986967833401152	0.007748526551474553	
C	-0.5975626789689841	1.262822508251847	-0.005566818389139829	
C	0.7892990042316109	1.1511927857741653	-0.004170487374729107	
C	-0.7806155619590692	-1.152201533252456	-0.004050319030643746	
C	0.6036893535604219	-1.2440726130188071	0.0012731711744937868	
C	1.3837105796135367	-0.1082490776605806	-0.0018960820358010417	
H	-2.4948027493493137	0.16613746044294908	0.001244900209461922	
H	-1.0580386347181998	2.1966925888911764	0.04720271701473736	
H	-1.3394308199522735	-2.0784238219562874	-0.04268690601165723	
H	1.1014612225592613	-2.2104171254079876	0.049583373218603885	
H	2.4573967748407384	-0.20021592408040761	0.017476266299656134	
H	1.4424453149387009	2.014671420155734	0.00656472452125798	
12

C	-1.4083284193512577	0.09972577354368607	0.008055910913233771	
C	-0.5972516916758835	1.2629420750306122	-0.005780436335651181	
C	0.7894835147344424	1.1511519341408722	-0.0043477224103206724	
C	-0.7804718010570185	-1.152192216082981	-0.004227645694486284	
C	0.6036478347781739	-1.2436349195081657	0.001336710370624753	
C	1.3834608281930167	-0.10839781017877416	-0.001970888463306936	
H	-2.495676855840575	0.16545929404126886	0.0013272530646948168	
H	-1.0579932499842168	2.196787498399009	0.04911340532037654	
H	-1.337426808702027	-2.079726977922172	-0.04436649521147221	
H	1.1023821011239423	-2.209576522574159	0.051537471263063024	
H	2.4571478909388302	-0.20084758384311702	0.01819036248377293	
H	1.44428993345693	2.0135713870652414	0.006824998739239003	
12

C	-1.4089804585446672	0.09958420539413397	0.008361401994491403	
C	-0.5969437001689257	1.2630463224574937	-0.005991891909859082	
C	0.789670204565682	1.1511127844079774	-0.004525370829796779	
C	-0.7803341937455528	-1.1521834631891346	-0.0044060002328438755	
C	0.6036098345345928	-1.2432058211303196	0.0014015390761506967	
C	1.383216514888224	-0.10854239847175372	-0.0020452035056963565	
H	-2.4965475731367297	0.16479227430671692	0.001413197847451404	
H	-1.0580202248492607	2.197048566510724	0.05101818378471429	
H	-1.3354646167644244	-2.081036978866931	-0.046034096047956566	
H	1.103289135503045	-2.2087531114139747	0.05347794264961892	
H	2.4569419554706537	-0.20147673248285616	0.018902766204997198	
H	1.4461237565518794	2.012509758702797	0.007083667974125001	
12

C	-1.4096264624659152	0.09944501387919744	0.008664926010637312	
C	-0.5966390018455123	1.2631352318982176	-0.006201095639832999	
C	0.7898591295767137	1.1510753821776076	-0.004703446322963719	
C	-0.7802029232551917	-1.1521753006184774	-0.004585420523001899	
C	0.6035754115436537	-1.2427855475764675	0.0014677082093851022	
C	1.3829778455229222	-0.10868270266250307	-0.0021190096445251913	
H	-2.4974140959200155	0.1641367328630389	0.001502853088307297	
H	-1.0581186570440921	2.1974744017902994	0.052916750396693954	
H	-1.3335448572481912	-2.0823526715856833	-0.04768924106720003	
H	1.1041815122288061	-2.2079468363205805	0.05540425982272143	
H	2.4567787002634125	-0.2021031160829142	0.019613401497736934	
H	1.4479455723037216	2.011486714849419	0.00734066382177108	
12

C	-1.410266177577197	0.09930823587861325	0.008966409667753184	
C	-0.5963379172838155	1.2632088533008357	-0.006407954722462778	
C	0.7900503472214712	1.151039778464132	-0.004881962155983658	
C	-0.7800781703076304	-1.1521677620805586	-0.004765944151670209	
C	0.6035446203790256	-1.2423743250974075	0.0015352683078330822	
C	1.38274503424268	-0.10881858738809788	-0.0021922892485035333	
H	-2.498275614665783	0.16349299439607815	0.001596334806913111	
H	-1.0582872825148648	2.1980628560418936	0.05480875608747399	
H	-1.331668084416792	-2.083672828844727	-0.049331462457494445	
H	1.1050584252051754	-2.2071576300287075	0.057315898250926076	
H	2.4566577252313553	-0.20272646982831125	0.020322189306561947	
H	1.4497541332256931	2.0105023618757585	0.007595916295289102	
12

C	-1.4108993576112685	0.09917390527008894	0.0092657801999972	
C	-0.596040789283982	1.2632673035352937	-0.006612372803653895	
C	0.7902439162334464	1.1510060294711488	-0.005060931153159103	
C	-0.7799601127146497	-1.1521608886694477	-0.004947608396260433	
C	0.6035175113055263	-1.2419723761461314	0.0016042694796284483	
C	1.382518303160493	-0.10894992196453954	-0.002265024545475381	
H	-2.499131317542916	0.16286137660440816	0.0016937564544523506	
H	-1.0585244847528674	2.1988110432720416	0.05669380157513401	
H	-1.3298347956467378	-2.0849961530161845	-0.050960292089631175	
H	1.1059190772884286	-2.2063854156104528	0.0592123367266667	
H	2.456578500946931	-0.20334651817194288	0.02102904727781141	
H	1.4515481584897816	2.0095567351325707	0.007849353726738393	
12

C	-1.4115257635002991	0.0990420530487637	0.00956296540643736	
C	-0.595747981661145	1.2633107642356336	-0.00681424981042351	
C	0.7904398962762544	1.1509741963469635	-0.005240365679844527	
C	-0.7798489249713492	-1.152154728553756	-0.005130450203376419	
C	0.6034941301155448	-1.2415799190223638	0.001674761353691824	
C	1.3822978819517078	-0.10907658054029012	-0.002337197596197644	
H	-2.4999803923369965	0.16224219015002747	0.0017952288582855935	
H	-1.0588283070361473	2.199715364393362	0.05857143484087298	
H	-1.3280454335429512	-2.0863212800383137	-0.05257526159608467	
H	1.1067626818634229	-2.2056301084682	0.0610930576800056	
H	2.456540371776889	-0.20396297505592126	0.021733889572830154	
H	1.4533263363571352	2.0086498015737373	0.008100902680345775	
12

C	-1.4121451632928175	0.09891270745319028	0.009857893687259416	
C	-0.595459877805306	1.263339479176542	-0.007013481838033993	
C	0.7906383475704448	1.1509443449211891	-0.0054202776265177615	
C	-0.7797447778483901	-1.1521493366407123	-0.0053145061647340355	
C	0.6034745179754323	-1.2411971675140983	0.0017467930287144175	
C	1.3820840073962997	-0.10919844224451734	-0.0024087902700810856	
H	-2.500822028381265	0.16163573860936004	0.0019008601690573485	
H	-1.0591964674071326	2.200771537308075	0.06044114927535055	
H	-1.3263003881635884	-2.087646783626096	-0.05417590248699372	
H	1.107588464410147	-2.204891618314676	0.06295754750532706	
H	2.4565425595617247	-0.2045755441873424	0.022436626704387615	
H	1.4550873267879447	2.0077814625790342	0.008350487877634935	
12

C	-1.4127573320592532	0.09878589409677982	0.010150494079288627	
C	-0.595176879027048	1.263353751223066	-0.007209961094169569	
C	0.790839330504673	1.1509165454315413	-0.005600678393924259	
C	-0.7796478379897782	-1.1521447742257065	-0.005499812491031283	
C	0.6034587112796858	-1.2408243305403241	0.0018204130211041337	
C	1.3818769228731467	-0.10931539132643903	-0.002479784223071989	
H	-2.501655418495847	0.16104231842454733	0.002010755810410445	
H	-1.0596263761644975	2.201974631926207	0.062302382520159016	
H	-1.324599999275007	-2.088971179599321	-0.0557617462971026	
H	1.1083956640548747	-2.204169851133838	0.06480529689994047	
H	2.4565841678133786	-0.2051839193673808	0.023137165397627484	
H	1.4568297641447645	2.00695155686642	0.008598032133478721	
12

C	-1.4133620517858976	0.09866163610418825	0.010440696290763335	
C	-0.5948994027210002	1.2633539389170998	-0.00740357589956288	
C	0.7910429052223197	1.1508908722277915	-0.00578157887954191	
C	-0.7795582675031103	-1.1521411086042082	-0.005686404982538322	
C	0.603446741513211	-1.2404616117964942	0.0018956692120318992	
C	1.3816768778094046	-0.10942731728514117	-0.00255016087781694	
H	-2.5024797609394676	0.16046221885541864	0.002125018431414309	
H	-1.0601151555033854	2.203319109372761	0.06415451599854574	
H	-1.3229445587988002	-2.0902929306057607	-0.05733232477865595	
H	1.1091835351003725	-2.203464711114563	0.06663580121341256	
H	2.4566641864032257	-0.20578778487185276	0.023835408476670254	
H	1.4585522601112	2.006159863646495	0.008843456305914066	
12

C	-1.4139591112529006	0.09853995426045598	0.010728430735163682	
C	-0.5946278803648706	1.263340452714757	-0.007594210746463774	
C	0.7912491311889084	1.1508674034579864	-0.005962989465342646	
C	-0.7794762235506139	-1.1521384126592695	-0.005874318996976118	
C	0.603438635122333	-1.2401092094037667	0.001972608793720033	
C	1.3814841270881275	-0.10953411498979942	-0.002619901406223953	
H	-2.503294261358954	0.15989572192978962	0.0022437478618843134	
H	-1.060659661172791	2.204798865131139	0.0659968751544852	
H	-1.3213343133591415	-2.091610451084378	-0.058887170133734734	
H	1.109951348530422	-2.2027761025481185	0.06844856080633628	
H	2.4567814967082167	-0.20638681588193408	0.024531254777767592	
H	1.4602534067753512	2.005406105955363	0.009086679259410957	
12

C	-1.4145483059094823	0.09842086715460768	0.01101362856429862	
C	-0.5943627553654475	1.2633137509369183	-0.007781746414488922	
C	0.7914580667443076	1.1508462207402508	-0.006144920006835327	
C	-0.7794018579435715	-1.1521367644283904	-0.00606358941483616	
C	0.6034344133950247	-1.2397673155630329	0.0020512782151179405	
C	1.3812989304183798	-0.10963568479033858	-0.002688986714487341	
H	-2.504098134724581	0.15934310239539123	0.002367041070686417	
H	-1.0612565058852355	2.206407275601269	0.06782873039229516	
H	-1.3197694669040114	-2.0929221124257165	-0.06042581528439513	
H	1.1106983934838515	-2.202103931681564	0.07024308141719204	
H	2.456934877169578	-0.20698067896218802	0.02522459908939123	
H	1.4619317798452394	2.004689954124426	0.009327617841416117	
12

C	-1.415129437744733	0.09830439132060653	0.011296221700563932	
C	-0.5941044808072803	1.2632743355351692	-0.007966060137479665	
C	0.7916697686424361	1.1508274088216375	-0.0063273798233936095	
C	-0.7793353167418958	-1.1521362466523906	-0.006254250602252321	
C	0.6034340923508039	-1.2394361162147214	0.0021317231271138952	
C	1.3811215516699418	-0.10973193261838052	-0.0027573974306777335	
H	-2.504890607248331	0.15880462767235717	0.002494992127160278	
H	-1.0619020838573177	2.208137246830668	0.06964929864199469	
H	-1.3182501833835212	-2.094226248303041	-0.06194779417947243	
H	1.1114239786929878	-2.201448108520301	0.07201887453591067	
H	2.45712300924554	-0.20756903258466713	0.025915332120088383	
H	1.4635859419813948	2.004011029367051	0.009566186872166704	
12

C	-1.4157023151524724	0.09819054137791026	0.011576142868261585	
C	-0.5938535171151021	1.2632227476840652	-0.008147025821018873	
C	0.7918842915811651	1.150811055225474	-0.006510377689863089	
C	-0.7792767398605737	-1.1521369463089102	-0.006446336371555484	
C	0.6034376826407352	-1.2391157907053534	0.002213988327435587	
C	1.3809522581763354	-0.10982277007857763	-0.00282511389494096	
H	-2.505670918276761	0.15828055780617528	0.0026276921657148776	
H	-1.062592596391734	2.209981265268136	0.07145774554747873	
H	-1.3167765894698766	-2.0955211601450037	-0.06345264213653916	
H	1.1121274338818306	-2.200808548572832	0.07377545778268173	
H	2.4573444837199707	-0.208151527696465	0.026603340494315217	
H	1.4652144462286691	2.0033689074633645	0.009802299147716974	
12

C	-1.4162667527909951	0.09807933017139996	0.011853325623965906	
C	-0.5936103296468035	1.2631595632312262	-0.008324514308591335	
C	0.792101687725314	1.150797249888692	-0.006693921829433428	
C	-0.779226260684644	-1.1521389541331684	-0.006639879939660066	
C	0.603445189458129	-1.2388065114622315	0.0022981177054244026	
C	1.3807913200102	-0.10990811453026107	-0.0028921161523131848	
H	-2.5064383221530457	0.15777114542051995	0.0027652293536343324	
H	-1.0633240783120868	2.2119314501749248	0.07325318825348515	
H	-1.3153487773033306	-2.0968051227217286	-0.06493989621725148	
H	1.1128081111167978	-2.200185174526222	0.07551235529013567	
H	2.457597807324045	-0.20872780832750515	0.02728850677613632	
H	1.4668158395278637	2.00276312252266	0.010035865456026812	
12

C	-1.4168225714386744	0.09797076890994016	0.012127704385915981	
C	-0.5933753865638964	1.2630853887032998	-0.008498393636561897	
C	0.7923220062257297	1.1507860847905327	-0.006878019907757435	
C	-0.7791840056943026	-1.1521423641286128	-0.006834913884448739	
C	0.6034566124599617	-1.2385084436765759	0.0023841541867960624	
C	1.3806390092349567	-0.10998788915950049	-0.0029583839481489055	
H	-2.5071920900429157	0.15727663566881694	0.002907688862077629	
H	-1.0640924211328862	2.213979599394568	0.0750346980786649	
H	-1.313966807249155	-2.0980763898163355	-0.0664090956340643	
H	1.1134653861095904	-2.1995779178533663	0.07722909808787809	
H	2.4578814096309505	-0.20929751223549228	0.02797070952055114	
H	1.4683886662916805	2.002193170804066	0.010266794605801167	
12

C	-1.4173695978463972	0.09786486730248894	0.01239921446240541	
C	-0.5931491566262532	1.2630008571516842	-0.00866852933441653	
C	0.7925452927376219	1.1507776535738494	-0.0070626790283042215	
C	-0.7791500941016349	-1.1521472730701874	-0.0070314700993408166	
C	0.6034719456992182	-1.2382217449958188	0.002472139678526126	
C	1.3804955991366905	-0.11006202304163883	-0.003023896726135345	
H	-2.5079315117165115	0.15679726618693574	0.0030551528403582914	
H	-1.0648933971922996	2.2161172370368862	0.07680130374761272	
H	-1.3126307106514872	-2.0993331999543376	-0.06785978218607436	
H	1.1140986594694628	-2.1989867203488194	0.07892522448803727	
H	2.458193650183046	-0.20986027158474768	0.02864982335199245	
H	1.4699314720273264	2.001658514576755	0.010494993467729766	
12

C	-1.4179076645877515	0.09776163369103795	0.012667792079152975	
C	-0.5929321068164854	1.2629066236440023	-0.008834784788013984	
C	0.7927715889398823	1.1507720511610287	-0.007247905728864141	
C	-0.7791246375004469	-1.1521537800023798	-0.0072295797462300915	
C	0.6034911775686191	-1.237946565226328	0.0025621150140419944	
C	1.380361363440251	-0.11013045119438611	-0.0030886336288465043	
H	-2.508655897281224	0.15633326704643574	0.0032077003934731715	
H	-1.065722685875531	2.218335665393474	0.07855199539262311	
H	-1.3113404925702987	-2.100573782164171	-0.06929150072156043	
H	1.1147073578988222	-2.1984115355835447	0.08060028046995499	
H	2.4585328258107966	-0.21041571365579484	0.029325719069343066	
H	1.47144280698857	2.0011585860016368	0.01072036702767616	
12

C	-1.418436609907837	0.09766107518001395	0.012933374405653744	
C	-0.5927246999683904	1.262803360750591	-0.008997021635883153	
C	0.7930009320585605	1.1507693733657423	-0.007433705979175307	
C	-0.779107739530515	-1.1521619857345602	-0.007429273206997869	
C	0.6035142907559334	-1.237683046047488	0.0026541198988771883	
C	1.3802365755136776	-0.1101931146216155	-0.0031525735007745925	
H	-2.5093645788602266	0.15588486070827703	0.0033654075628459933	
H	-1.0665758998724084	2.2206260169410843	0.08028572896811624	
H	-1.310096134488622	-2.1017963617447855	-0.07070379962469764	
H	1.115290935328572	-2.1978523302736104	0.08225382006245355	
H	2.458897178102741	-0.21096346158210985	0.029998263776627603	
H	1.472921229842717	2.0006927910163697	0.01094281845122963	
12

C	-1.4189562775715696	0.09756319776138753	0.013195899580501132	
C	-0.592527392517972	1.262691754262173	-0.009155100175240379	
C	0.7932333543972769	1.150769716501899	-0.007620085179622282	
C	-0.7790994955574921	-1.1521719923360092	-0.007630580033814745	
C	0.6035412622094579	-1.2374313207402658	0.0027481928569538	
C	1.3801215075664168	-0.11024996034561507	-0.0032156948937661395	
H	-2.510056912210658	0.15545226197744721	0.0035283473102470813	
H	-1.067448610070632	2.222979303632755	0.08200143079943069	
H	-1.3088975969783403	-2.102999166014783	-0.07209623132370077	
H	1.1158488739896828	-2.1973090855580795	0.08388540572210916	
H	2.4592849009863005	-0.21150313511048072	0.03066732103836349	
H	1.4743653113356139	2.000260513207156	0.011162249159073715	
12

C	-1.4194665167123928	0.0974680064342657	0.013455306735653958	
C	-0.5923406323429787	1.2625724990671532	-0.009308879781153167	
C	0.7934688828771503	1.1507731769911989	-0.007807048160947198	
C	-0.7790999923701473	-1.1521839026339373	-0.007833528898519529	
C	0.6035720631166108	-1.237191513927048	0.0028443711776258854	
C	1.380016429864728	-0.11030094143391896	-0.003277976074032189	
H	-2.5107322782762624	0.1550356779594393	0.0036965895048891952	
H	-1.068336369500525	2.2253864643412826	0.08369800230631197	
H	-1.3077448223070887	-2.1041804300014575	-0.0734683528165537	
H	1.116380685417945	-2.1967817981818176	0.08549460870597515	
H	2.459694148111885	-0.21203435135622298	0.03133275104998091	
H	1.475773637938975	1.999861117651616	0.01137855891253327	
12

C	-1.419967181681744	0.09737550531945662	0.013711536019658773	
C	-0.592164856671998	1.2624462951465243	-0.009458219340211349	
C	0.7937075385885621	1.1507798509707468	-0.007994599184903481	
C	-0.7791093078986915	-1.1521978197215923	-0.008038147541645927	
C	0.6036066588955904	-1.2369637413237962	0.0029426908636345146	
C	1.3799216099637175	-0.11034601702031775	-0.003339395030699211	
H	-2.5113900846719988	0.1546353080152167	0.00387020091349859	
H	-1.0692347365701946	2.2278384109649956	0.0853743249169317	
H	-1.3066377369435604	-2.1053384019924266	-0.07481972620744799	
H	1.1168859113890168	-2.1962704815796563	0.08708100943722959	
H	2.460123040056925	-0.21255672555428065	0.03199441082287699	
H	1.4771448154625262	1.9994939547161417	0.011591645908617285	
12

C	-1.4204581318998137	0.09728569776888248	0.013964528619820388	
C	-0.5920004900604444	1.2623138436772579	-0.009602977697315702	
C	0.7939493363574357	1.1507898339018592	-0.0081827419457996	
C	-0.7791275109486242	-1.1522138464665654	-0.008244462720533809	
C	0.6036450091992123	-1.2367481095066168	0.0030431865801301295	
C	1.3798373119057872	-0.11038515231365743	-0.0033999294875198737	
H	-2.5120297670948974	0.15425134371640628	0.004049245193337286	
H	-1.0701392976437059	2.2303260733073396	0.08702926515549841	
H	-1.3055762540295337	-2.106471349067052	-0.07614991926030398	
H	1.1173641247810722	-2.195775166858374	0.08864419786223932	
H	2.460569671965726	-0.21306987186397505	0.032652154403341245	
H	1.4784774726182337	1.9991583637935435	0.01180140688378898	
12

C	-1.4209392317097542	0.09719858646714852	0.01421422678334962	
C	-0.5918479425294102	1.262175843440417	-0.009743014094112653	
C	0.7941942843284011	1.1508032201817338	-0.008371479572849796	
C	-0.779154660953251	-1.1522320850254908	-0.008452500157019517	
C	0.6036870679309833	-1.2365447156934775	0.0031458916049069544	
C	1.379763795424192	-0.11041831859795868	-0.0034595569165661237	
H	-2.512650790656636	0.15388396880104235	0.004233782888100782	
H	-1.0710456878127839	2.2328404404298583	0.08866167964671291	
H	-1.3045602757822932	-2.107577562537767	-0.07745850596325841	
H	1.1178149303626224	-2.1952959036732396	0.09018377379756179	
H	2.4610321211714807	-0.21357340418500792	0.033305833111313285	
H	1.4797702645193125	1.998853676963938	0.012007737225631912	
12

C	-1.4214103502350222	0.09711417352739843	0.01446057383752075	
C	-0.5917076082245378	1.262032988252731	-0.009878188522509292	
C	0.7944423835693676	1.1508201027623417	-0.0085608146331815	
C	-0.7791908077463047	-1.152252636368349	-0.008662284485022874	
C	0.6037327832734256	-1.2363536475417531	0.0032508377799914394	
C	1.3797013151554114	-0.11044549322390707	-0.0035182545537463857	
H	-2.513252651134283	0.15353335912894966	0.004423871426565827	
H	-1.0719496056254163	2.235372589891841	0.09027041912372513	
H	-1.303589695811476	-2.1086553632662546	-0.07874506710009796	
H	1.1182379655033052	-2.1948327609962592	0.09169934726544811	
H	2.461508454760053	-0.21406693698061635	0.03395529579719339	
H	1.4810218760712828	1.998579222529685	0.012210531090741408	
12

C	-1.4218713612403977	0.0970324605810323	0.014703514208835278	
C	-0.5915798642021884	1.261885964625821	-0.010008362066259406	
C	0.794693627694409	1.150840572771281	-0.008750749135582808	
C	-0.7792359913552338	-1.152275599814168	-0.008873839198260125	
C	0.6037820977286387	-1.236174982962263	0.003358055464724002	
C	1.379650119863402	-0.11046665959183907	-0.003575999416008711	
H	-2.51383487613559	0.1531996826370264	0.004619565123903367	
H	-1.0728468264626188	2.2379137143720422	0.0918543323090988	
H	-1.3026644013439779	-2.109703106838168	-0.08000919082576387	
H	1.1186329008056703	-2.1943858277736448	0.09319053881645852	
H	2.461996737044396	-0.2145500861045831	0.0346003891150807	
H	1.4822310253035975	1.9983343284879724	0.012409681529785216	
12

C	-1.422322142994133	0.09695344886548542	0.014942993441111545	
C	-0.5914650690579989	1.261735449063432	-0.01013339728920682	
C	0.7949480025079553	1.1508647191374226	-0.008941284534879834	
C	-0.7792902418157082	-1.1523010725787926	-0.009087186598279808	
C	0.6038349481710307	-1.2360087899503847	0.003467573490470214	
C	1.3796104516786751	-0.11048180712640918	-0.003632768320090028	
H	-2.514397026174377	0.15288309929602723	0.004820915185628799	
H	-1.073733218002339	2.240455152639813	0.09341227036696871	
H	-1.301784275351459	-2.110719188580165	-0.08125047324305512	
H	1.1189994406562098	-2.193955213470338	0.09465697983785232	
H	2.4624950369203735	-0.21502246962887714	0.03524095781076102	
H	1.4833964666130866	1.9981183259102377	0.012605080618539093	
12

C	-1.4227625781338935	0.09687713930688702	0.015178958212565399	
C	-0.5913635617092681	1.2615821056327179	-0.010253158605201101	
C	0.7952054856719267	1.1508926282240282	-0.009132421736798615	
C	-0.7793535790076764	-1.1523291493364154	-0.009302347743044639	
C	0.6038912659121365	-1.2358551264348334	0.0035794191170919736	
C	1.3795825453550263	-0.11049093124322208	-0.003688537902673074	
H	-2.51493869565364	0.15258376106780627	0.0050279697140501265	
H	-1.0746047540341128	2.2429884173363788	0.09494309115039425	
H	-1.3009491985758956	-2.1117020484041653	-0.08246851897770938	
H	1.1193373236941115	-2.19354104849972	0.09609831284647001	
H	2.4630014350768477	-0.21548370866880584	0.03587684502273411	
H	1.484516993899139	1.997930552205968	0.012796619593786612	
12

C	-1.42319255354338	0.09680353258908027	0.015411356352116823	
C	-0.5912756602291223	1.2614265836233207	-0.01036751264813042	
C	0.7954660463976655	1.1509243834701057	-0.009324161103259222	
C	-0.7794260125132434	-1.1523599217961258	-0.00951934239626806	
C	0.6039509767774055	-1.2357140401446425	0.0036936179913045456	
C	1.3795666275464153	-0.11049403330756985	-0.003743284641806378	
H	-2.515459513753713	0.15230181186294972	0.005240773717110837	
H	-1.0754575277777891	2.2455052218917753	0.09644566346066125	
H	-1.3001590514493648	-2.112650175465905	-0.08366294174915528	
H	1.1196463231964442	-2.1931434845369444	0.09751419176488613	
H	2.463514031034987	-0.21593342820271672	0.03650789259455012	
H	1.4855914435827073	1.9977703542628629	0.012984188993308804	
12

C	-1.42361196023456	0.09673262921676715	0.015640136854783077	
C	-0.5912016608230297	1.2612695154588078	-0.010476328622025625	
C	0.795729645163937	1.1509600650410046	-0.00951650245802704	
C	-0.7795075414965388	-1.152393478294576	-0.009738188977705583	
C	0.6040140011948189	-1.2355855684948576	0.0038101941070398334	
C	1.3795629161058907	-0.11049112058504951	-0.003796984879427452	
H	-2.5159591452222103	0.15203738749960172	0.005459369119551588	
H	-1.0762877636882808	2.247997504523702	0.09791887108068317	
H	-1.299413715905138	-2.1135621126281	-0.08483336493440545	
H	1.1199262473787708	-2.1927626947145167	0.09890428217967266	
H	2.464030949993828	-0.21637125788349681	0.037133941396725455	
H	1.486618697493574	1.9976370914536805	0.013167678799190183	
12

C	-1.424020693235896	0.09666442957286298	0.01586524989617528	
C	-0.5911418369346638	1.2611115148329848	-0.010579478631957753	
C	0.7959962334622372	1.150999749489086	-0.009709445092655634	
C	-0.7795981546056795	-1.1524299034055143	-0.009958904514585807	
C	0.6040802542951428	-1.2354697384913755	0.003929169767932072	
C	1.3795716194102219	-0.11048220618459464	-0.003849614844806707	
H	-2.5164372910639217	0.1517906156622344	0.005683794776231873	
H	-1.0770918279145227	2.2504574496474734	0.09936161659069385	
H	-1.2987130770780466	-2.1144364607181765	-0.08597942212260232	
H	1.1201769396103414	-2.1923988736991418	0.10026826158068614	
H	2.464550349445693	-0.21679683283770484	0.03775483165591378	
H	1.4875976856222606	1.997530138503449	0.013346978583600492	
12

C	-1.4244186514870723	0.09659893396973013	0.016086646846104682	
C	-0.5910964384368663	1.2609531749805547	-0.010676838003828232	
C	0.7962657535700175	1.151043509425573	-0.009902987772629055	
C	-0.7796978298968262	-1.1524692775670957	-0.010181504594365872	
C	0.6041496460236185	-1.235366566655339	0.004050565552035677	
C	1.379592935718801	-0.11046730899474752	-0.003901150678514077	
H	-2.516893689129354	0.15156161586046105	0.005914086487504174	
H	-1.077866237939027	2.25287750777883	0.10077282506204878	
H	-1.298057024892168	-2.1152718825723222	-0.08710075765787104	
H	1.1203982785429607	-2.192052237649562	0.10160581958037693	
H	2.4650704254638973	-0.2172097944415495	0.03837040328652256	
H	1.4885273887300996	1.997448888211171	0.013521977656295482	
12

C	-1.4248057377404595	0.09653614269526509	0.01630428028135468	
C	-0.591065691114213	1.26079506750241	-0.010768285544559462	
C	0.7965381383526292	1.1510914132044232	-0.01009712874363269	
C	-0.7798065347802315	-1.1525116767277817	-0.010406003318987092	
C	0.6042220812628534	-1.2352760589674598	0.004174400278878738	
C	1.379627052552331	-0.11044645361181038	-0.0039515684573830446	
H	-2.5173281145998767	0.15135049938854467	0.006150277016556802	
H	-1.0786076689419233	2.2552504089099275	0.10215144705018911	
H	-1.2974454555346726	-2.1160671068575287	-0.08819702716820331	
H	1.1205901781533223	-2.191723024054711	0.10291665811217589	
H	2.465589418839121	-0.21760979109052134	0.03898049623034338	
H	1.4894068408099315	1.997392754020801	0.013692565213135263	
12

C	-1.425181858469627	0.09647605605407603	0.01651810399764654	
C	-0.5910497965225393	1.2606377419214978	-0.010853703718995323	
C	0.7968133110946592	1.1511435246189705	-0.010291865737886947	
C	-0.7799242259879601	-1.152557172011555	-0.010632413260796772	
C	0.604297459966496	-1.2351982108325876	0.004300690978948089	
C	1.3796741460987032	-0.11041967026049596	-0.004000844220122321	
H	-2.5177403803682066	0.15115736928517692	0.006392396108604084	
H	-1.079312955872961	2.2575691672586777	0.10349646060375225	
H	-1.296878272815383	-2.116820931664329	-0.08926789807821864	
H	1.1207525876986326	-2.1914114914520653	0.1042004916071019	
H	2.466105620978073	-0.21799647895364013	0.03958495080000451	
H	1.49023513139171	1.9973611724368971	0.013858630484904646	
12

C	-1.4255469237851837	0.09641867440377892	0.016728073020816376	
C	-0.5910489316559219	1.260481724809595	-0.010932978872093135	
C	0.7970911853610132	1.1511999026120747	-0.010487195980477575	
C	-0.7800508495629931	-1.1526058294023998	-0.010860745420271094	
C	0.6043756773032649	-1.235133007064775	0.004429452865696303	
C	1.3797343806493065	-0.11038699470744302	-0.004048953993380237	
H	-2.5181303373127006	0.1509823202938596	0.006640470511823	
H	-1.0799790980168211	2.2598270912023355	0.10480687382126443	
H	-1.2963553894118933	-2.117532227865365	-0.09031305010384273	
H	1.120885491585567	-2.191117919026397	0.10545704714781896	
H	2.4666173795289015	-0.21836952270799523	0.040183608023811185	
H	1.491011407687963	1.9973536052810397	0.014020062885745322	
12

C	-1.4259008473581751	0.09636399818673984	0.01693414361723464	
C	-0.591063248850409	1.2603275193600274	-0.011006001397539654	
C	0.7973716648883281	1.151260601000279	-0.010683116195634203	
C	-0.7801863408700191	-1.152657709448676	-0.011091009185694792	
C	0.6044566238116412	-1.2350804218931002	0.004560699310160939	
C	1.37980790806689	-0.11034846816778165	-0.004095873818143325	
H	-2.518497874464234	0.1508254388238124	0.006894523999903009	
H	-1.0806032609399445	2.2620177879692744	0.10608172677693342	
H	-1.295876728000794	-2.118199942235859	-0.09133217572709189	
H	1.1209889091528191	-2.190842606089403	0.10668606459945887	
H	2.467123103722725	-0.21872859625163957	0.040776309990438436	
H	1.4917348765748972	1.9973695417856825	0.014176752160527079	
12

C	-1.4262435463511036	0.09631202795760843	0.017136273303547462	
C	-0.5910928756048391	1.2601756047549557	-0.011072665926556088	
C	0.7976546435074484	1.1513256682126891	-0.01087962261287361	
C	-0.7803306246271802	-1.1527128669879771	-0.01132321229491271	
C	0.6045401855654243	-1.2350404189879511	0.004694441818292402	
C	1.3798948672859936	-0.11030413720491485	-0.00414157977638083	
H	-2.5188429190746824	0.15068680291104714	0.007154577396153927	
H	-1.0811827796207478	2.264135170850138	0.10732009369324685	
H	-1.295442222278255	-2.1188231003371496	-0.09232498065045694	
H	1.121062894366643	-2.190585871440253	0.10788729671713987	
H	2.4676212694140114	-0.21907338339226493	0.04136290019203753	
H	1.4924048064007993	1.9974085005179694	0.014328588530732883	
12

C	-1.4265749413573494	0.09626276440616867	0.01733442085557315	
C	-0.5911379144197815	1.2600264355270987	-0.011132871513976019	
C	0.7979400050948564	1.1513951470461066	-0.011076710972929303	
C	-0.7804836149589872	-1.1527713508921436	-0.01155736079934251	
C	0.6046262443465654	-1.235012951509591	0.004830690010972364	
C	1.3799953838465226	-0.11025405362403315	-0.004186048017763175	
H	-2.519165436550397	0.15056648217941365	0.0074206485988029414	
H	-1.0817151615812461	2.266173466525639	0.1085210850882597	
H	-1.2950518178598023	-2.119400809141358	-0.09329118422439149	
H	1.121107535434628	-2.1903480526113692	0.10906050922768212	
H	2.4681104238467606	-0.21940357851331205	0.04194322386420869	
H	1.493020528637729	1.9974700311501676	0.01447546283729421	
12

C	-1.4268949563482838	0.09621620837681678	0.01752854631661367	
C	-0.5911984427250295	1.2598804410726512	-0.011186521803671511	
C	0.7982276235550683	1.1514690744353828	-0.011274376533403225	
C	-0.7806452154688911	-1.1528332038336178	-0.011793459030316122	
C	0.6047146778295245	-1.2349979621766278	0.00496945160690595	
C	1.3801095694612133	-0.11019827435869921	-0.0042292547863858445	
H	-2.5194654303050745	0.15046453780231253	0.007692752607639375	
H	-1.0821980891253429	2.2681272206627248	0.10968384968124385	
H	-1.2947054730767342	-2.1199322594225936	-0.09423051985378673	
H	1.121122954331693	-2.19012950499566	0.11020548088800658	
H	2.46858919008998	-0.2197188872115689	0.042517128321801115	
H	1.493581439345206	1.9975537160466155	0.014617266681334942	
12

C	-1.4272035186287666	0.09617236088422745	0.01771861100513515	
C	-0.5912745128982408	1.2597380253134662	-0.011233525172346211	
C	0.7985173628327685	1.1515474812406328	-0.011472614074175169	
C	-0.7808153193319708	-1.1528984620724358	-0.012031509567805968	
C	0.6048053597737958	-1.2349953833559029	0.005110732408362161	
C	1.3802375216172948	-0.11013686135135996	-0.004271176447451766	
H	-2.519742941495766	0.1503810224645947	0.007970901551792756	
H	-1.0826294206863656	2.2699913017790707	0.1108075760458017	
H	-1.294403159659564	-2.1204167278954564	-0.09514273537709708	
H	1.1211093062442752	-2.1899306008606243	0.11132200351805173	
H	2.4690562711722968	-0.22001902690807623	0.04308446328893727	
H	1.4940870004626132	1.9976591716842196	0.014753892561059556	
12

C	-1.42750055880107	0.09613122312532213	0.017904577521797086	
C	-0.5913661523383156	1.2595995664367274	-0.011273794859806528	
C	0.798809076954874	1.1516303920515123	-0.011671417902440258	
C	-0.7809938094070052	-1.1529671552643277	-0.012271513211708189	
C	0.6048981602248962	-1.235005137173378	0.005254536289821262	
C	1.380379323212785	-0.11006988142785447	-0.004311789513759687	
H	-2.519998048651751	0.15031598032461257	0.008255104718421955	
H	-1.0830071917059791	2.2717609042371874	0.11189149410655805	
H	-1.294144863312444	-2.1208535791042316	-0.09602759341822359	
H	1.1210667789329294	-2.1897517282503998	0.11240988200846679	
H	2.469510453904223	-0.2203037274304081	0.04364508122224121	
H	1.4945367409241752	1.9977860499008713	0.014885234004647918	
12

C	-1.4277860107372657	0.09609279648780565	0.018086409755882025	
C	-0.5914733636120938	1.2594654167514074	-0.011307249080650417	
C	0.7991026101022254	1.151717825009022	-0.011870781857352197	
C	-0.7811805583674435	-1.153039306290049	-0.012513468955750512	
C	0.6049929457233806	-1.2350271356459093	0.005400865189563459	
C	1.3805350422276337	-0.10999740616614298	-0.004351070671935666	
H	-2.520230867196864	0.1502694469766614	0.008545368582217945	
H	-1.0833296148185807	2.273431549893894	0.11293487641858614	
H	-1.293930584179908	-2.1212422670607562	-0.09688487170991779	
H	1.120995592015009	-2.1895932897781605	0.11346893430299403	
H	2.4699506123861927	-0.22057273156531637	0.04419883762609325	
H	1.4949302575951555	1.997934038970857	0.015011185698590019	
12

C	-1.4280598115599679	0.09605708255649394	0.018264072891198045	
C	-0.5915961246651363	1.2593359026438176	-0.011333811119124263	
C	0.7993977967106447	1.1518097916451802	-0.012070699314238304	
C	-0.7813754288507576	-1.1531149311061437	-0.012757373964112287	
C	0.6050895795214276	-1.2350612808337171	0.005549719104222376	
C	1.3807047314298535	-0.10991951175951052	-0.00438899680832948	
H	-2.520441548866301	0.15024144941387435	0.008841696835569382	
H	-1.083595079450054	2.2749990886028866	0.1139370392496841	
H	-1.2937603372072228	-2.1215823366310134	-0.09771436338769487	
H	1.120895996169376	-2.189455701311624	0.11449899135556182	
H	2.4703757112013993	-0.2208257955808383	0.044745591358833596	
H	1.49526721602883	1.9981028645067478	0.015131643610962814	
12

C	-1.4283219016315751	0.09602408311696795	0.018437533411454467	
C	-0.5917343891343467	1.2592113247116696	-0.011353409397057897	
C	0.7996944616008389	1.1519062967410227	-0.012271163188343355	
C	-0.7815782736257004	-1.153194038616956	-0.013003223550823234	
C	0.6051879218065229	-1.2351074650132912	0.005701096086316874	
C	1.380888428116719	-0.10983627887451719	-0.0044255450345026745	
H	-2.520630281019319	0.1502320059914763	0.009144090419225901	
H	-1.0838021503727713	2.2764596966244017	0.1148973433450805	
H	-1.2936341523955708	-2.1218734246697912	-0.09851587725329371	
H	1.1207682722653258	-2.1893393905547973	0.11549989706222184	
H	2.47078480829319	-0.22106268971704607	0.045285204928897	
H	1.4955473510436745	1.9982922901872873	0.015246505109166012	
12

C	-1.428572224551961	0.09599380015674823	0.01860675910513793	
C	-0.591888086651187	1.2590919578488404	-0.011365977542587122	
C	0.799992420136618	1.1520073382032898	-0.012472165938067237	
C	-0.7817889357769567	-1.153276630568036	-0.013251011162013005	
C	0.605287829931747	-1.2351655708704288	0.005854992244764048	
C	1.381086153890878	-0.1097477925038423	-0.004460692712231744	
H	-2.520797285849409	0.1502411263903964	0.00945254755329325	
H	-1.0839495665348373	2.277809875652039	0.11581519470439011	
H	-1.2935520749532092	-2.1221152609026595	-0.09928923800679751	
H	1.1206127304181805	-2.189244795529466	0.11647150816817767	
H	2.471177057527301	-0.22128319864473228	0.045817544779908334	
H	1.495770467120469	1.9985021183110148	0.015355669071659138	
12

C	-1.4288107271645503	0.0959662358641806	0.018771719069916565	
C	-0.5920571231443309	1.2589780512997997	-0.011371454457658166	
C	0.8002914784108414	1.1521129069601248	-0.01267369956766516	
C	-0.7820072489066605	-1.1533627014610437	-0.013500728361076512	
C	0.6053891586519661	-1.2352354717126603	0.006011401748324806	
C	1.3812979144713102	-0.10965414181436536	-0.004494417477964011	
H	-2.520942819493777	0.15026881158125815	0.009767063768387638	
H	-1.084036240052525	2.2790464522287777	0.11669004534671452	
H	-1.293514165343656	-2.122307668555333	-0.10003428644664548	
H	1.1204297089765258	-2.1891723629645248	0.1174136941507554	
H	2.4715517109400733	-0.22148712189128045	0.04634248156383953	
H	1.495936438619486	1.9987321901753545	0.0154590359932645	
12

C	-1.4290373595707055	0.0959413926252123	0.018932383716599967	
C	-0.5922413811698773	1.258869828742845	-0.011369784377146573	
C	0.8005914334584835	1.1522229868760974	-0.01287575562938223	
C	-0.7822330373522677	-1.1534522384902062	-0.013752364816812145	
C	0.6054917603654113	-1.2353170317006303	0.006170316831964016	
C	1.3815236995389988	-0.10955541999078579	-0.004526697266662706	
H	-2.521067171044353	0.15031505378879476	0.01008763193676964	
H	-1.0840612550239854	2.280166576843914	0.11752139397823429	
H	-1.2935204992317997	-2.1224505647301473	-0.10075087963682561	
H	1.1202195734439333	-2.189122546597205	0.11832633707878715	
H	2.4719081206738194	-0.22167427423314687	0.046859890401360293	
H	1.496045209818113	1.998982386281183	0.015556508083619464	
12

C	-1.4292520751522724	0.09591927301828958	0.01908872477268405	
C	-0.5924407203087183	1.258767488485689	-0.01136091690907895	
C	0.8008920734961164	1.1523375546868242	-0.013078325224997025	
C	-0.7824661164202745	-1.1535452215003974	-0.0140059082945842	
C	0.6055954853605855	-1.2354101060988	0.00633172780619835	
C	1.3817634826171328	-0.10945172407509847	-0.004557510334979838	
H	-2.5211706614627793	0.15037983645673123	0.010414242303271723	
H	-1.084023865685372	2.2811677217113933	0.11830878643679843	
H	-1.2935711673286718	-2.1225439605293706	-0.10143889104061242	
H	1.1199827153326847	-2.189095805380312	0.11920933144777793	
H	2.4722457406006906	-0.22184448605437793	0.04736965112855513	
H	1.49609679476954	1.9992526263629433	0.01564798935838294	
12

C	-1.4294548306021557	0.09589987980740602	0.019240715285501378	
C	-0.5926549775513195	1.2586712036119176	-0.011344807076197566	
C	0.80119317818594	1.152456579953529	-0.013281399006750905	
C	-0.7827062926352895	-1.1536416229669062	-0.01426134465055536	
C	0.6057001820676566	-1.2355145415443585	0.006495623069330871	
C	1.3820172209856258	-0.1093431548022467	-0.004586835283697942	
H	-2.5212536424020984	0.15046313421325835	0.01074688251583186	
H	-1.083923494838129	2.2820476791509465	0.11905181615457319	
H	-1.293666275135452	-2.1225879609250273	-0.10209821062028622	
H	1.119719550956368	-2.189092601606817	0.12006258399228431	
H	2.4725641276365935	-0.22199760367061977	0.047871648529219664	
H	1.496091276983388	1.9995428692444641	0.015733385722821756	
12

C	-1.429645585962744	0.09588321593346927	0.019388329625003912	
C	-0.5928839676453355	1.2585811220293643	-0.01132141536539787	
C	0.8014945189229269	1.1525800250378182	-0.013484967177643107	
C	-0.782953364003963	-1.1537414079969879	-0.014518657829030144	
C	0.6058056973137586	-1.2356301763336723	0.00666198912251779	
C	1.3822848556297131	-0.1092298164323048	-0.004614651079383344	
H	-2.52131649493818	0.15056491283717136	0.011085537655436697	
H	-1.0837597328246802	2.2828045611519348	0.11975012471641244	
H	-1.2938059425871007	-2.1225827643749136	-0.10272874490234199	
H	1.1194305201652037	-2.189113398957525	0.12088601347636273	
H	2.472862942746709	-0.2221334896181087	0.04836577255198218	
H	1.49602880892941	1.9998531125207941	0.015812605047424447	
12

C	-1.4298243046719707	0.09586928450413192	0.01953154348620411	
C	-0.5931274834580899	1.2584973665208234	-0.011290707772621663	
C	0.8017958591486122	1.1527078450965293	-0.013689019491083457	
C	-0.7832071202932841	-1.1538445343532227	-0.014777829862941615	
C	0.6059118765816184	-1.235756840725545	0.0068308105876029555	
C	1.3825663112223585	-0.1091118165795636	-0.004640937075194745	
H	-2.521359628214471	0.1506851292244129	0.01143019026525411	
H	-1.083532336475965	2.28343679892436	0.12040340236596685	
H	-1.2939903035958609	-2.1225286621845356	-0.10333041700777171	
H	1.1191160850281046	-2.1891586604777364	0.12167955046304106	
H	2.4731419516441617	-0.2222520229071382	0.04885191851152572	
H	1.4959096113656087	2.0001833920663525	0.01588555723521191	
12

C	-1.429990953616778	0.09585808878218542	0.01967033389129824	
C	-0.5933852963486118	1.25842003479204	-0.011252655843910627	
C	0.8020969546882515	1.1528399880970668	-0.013893545249880412	
C	-0.783467343322785	-1.1539509524987763	-0.015038840877510102	
C	0.6060185642709133	-1.2358943572604908	0.007002070227643991	
C	1.3828614961402343	-0.1089892660389014	-0.0046656730307914574	
H	-2.5213834780035653	0.1508237313553389	0.011780820378759712	
H	-1.0832412280569517	2.283943142492081	0.1210113884677445	
H	-1.29421950549469	-2.122426037614564	-0.10390316664707214	
H	1.1187767284657448	-2.1892288464892724	0.12244313706388578	
H	2.4734010251831933	-0.22235309923946203	0.049329987273212555	
H	1.4957339724923808	2.000533781369868	0.01595215428043779	
12

C	-1.4301455031937154	0.09584963217260144	0.01980467919149481	
C	-0.5936571565451365	1.258349199509978	-0.011207236713598497	
C	0.8023975541104345	1.1529763948533343	-0.014098533304560002	
C	-0.7837338072701779	-1.1540606056646583	-0.015301669097096179	
C	0.6061256039617505	-1.2360425410951656	0.0071757489700423885	
C	1.383170302513011	-0.10886227860983522	-0.004688839131286072	
H	-2.5213885051895333	0.15098065826281679	0.012137405546647271	
H	-1.0828864942501206	2.284322660410302	0.12157387193682831	
H	-1.294493708380553	-2.1222753647335146	-0.1044469500797103	
H	1.11841295283915	-2.189324412444654	0.12317672666985253	
H	2.473640139447877	-0.22243663118921844	0.04979988542042844	
H	1.495502246934591	2.0009043906967694	0.016012310318395933	
12

C	-1.430287927376379	0.09584391820828639	0.019934559068569852	
C	-0.5939427935266358	1.2582849083297647	-0.011154433139928654	
C	0.80269739910822	1.1531169990823589	-0.014303972051011245	
C	-0.7840062789900195	-1.1541734299390456	-0.015566290855263848	
C	0.6062328386796879	-1.2362012003510312	0.007351825932179244	
C	1.3834926063057025	-0.10873097091866858	-0.0047104160051863655	
H	-2.521375194175295	0.15115584000125776	0.012499920862309834	
H	-1.0824683851852248	2.2845747396247678	0.12209069163969938	
H	-1.2948130843573809	-2.1220772070154306	-0.10496174003786218	
H	1.1180252784985707	-2.1894458067306437	0.12388028366472097	
H	2.473859375537432	-0.22250254834687436	0.05026152540398898	
H	1.495214854553758	2.0012953660798494	0.016065941666078425	
12

C	-1.4304182037893312	0.09584095053454134	0.02005995453616816	
C	-0.5942419163806122	1.2582271839063344	-0.011094233538486103	
C	0.8029962248746794	1.1532617274836432	-0.014509849427396727	
C	-0.7842845183467559	-1.154289354378579	-0.01583268060808927	
C	0.6063401111634295	-1.2363701364763666	0.007530278449475441	
C	1.3838282674338211	-0.10859546223916157	-0.0047303847412711614	
H	-2.5213440512195793	0.15134919761670879	0.01286833898567683	
H	-1.0819873135257732	2.2846990854952947	0.1225617367701525	
H	-1.2951778166784018	-2.121832215682516	-0.10544752561432905	
H	1.1176142422976314	-2.1895934684287623	0.12455378312252408	
H	2.4740589190488986	-0.2225507974257046	0.0507148256729673	
H	1.4948722790928557	2.0017068881392195	0.016112966853455722	
12

C	-1.430536313788171	0.09584073289231637	0.02018084794087156	
C	-0.594554214164488	1.2581760238916357	-0.011026632013624898	
C	0.8032937605004563	1.1534104998390924	-0.01471615291037462	
C	-0.7845682785591553	-1.1544083011418804	-0.016100810950676916	
C	0.6064472641329273	-1.236549144619126	0.007711082105701382	
C	1.3841771299102006	-0.10845587431346868	-0.0047487269043305965	
H	-2.5212956027082916	0.15156064311815717	0.013242630165190967	
H	-1.0814438536185964	2.2846957219980775	0.12298694720308846	
H	-1.2955880987874906	-2.121541127792869	-0.10590431211463243	
H	1.1171803960779625	-2.1897678250408092	0.12519721049048665	
H	2.4742390592576875	-0.2225813423303255	0.05115971078631884	
H	1.4944750666565454	2.0021391707328218	0.016153306645179947	
12

C	-1.4306422425454204	0.09584326910037247	0.020297222963055164	
C	-0.5948793562884191	1.258131400918546	-0.01095162838791485	
C	0.8035897294109107	1.1535632291321036	-0.014922869510686936	
C	-0.7848573065554143	-1.1545301856454246	-0.016370652636872	
C	0.6065541405575652	-1.2367380140087156	0.007894210765389589	
C	1.384539022022689	-0.10831233117459464	-0.004765424549705216	
H	-2.5212303933652636	0.15179007945030537	0.013622762257708202	
H	-1.0808387407068254	2.284564992108855	0.12336631382718496	
H	-1.2960441332591588	-2.121204764073769	-0.10633212087339342	
H	1.1167243051297258	-2.1899692901877796	0.12581056125908532	
H	2.474400187996312	-0.22259416418680852	0.05159611150469769	
H	1.4940238240300316	2.0025924594390534	0.01618688405254518	
12

C	-1.4307359791417569	0.09584856303625842	0.020409064617546064	
C	-0.59521699289858	1.2580932625707526	-0.010869228229565757	
C	0.803883849821117	1.1537198216873015	-0.015129985768083698	
C	-0.7851513433395245	-1.1546549167416105	-0.016642174602163957	
C	0.606660583921493	-1.2369365283502909	0.00807963660827509	
C	1.3849137565457228	-0.10816495896612074	-0.004780460236618879	
H	-2.521148984408043	0.15203740046786737	0.01400870074611214	
H	-1.0801728702006932	2.284307558356616	0.12369987885563032	
H	-1.2965461306368187	-2.120824026501361	-0.10673098903521575	
H	1.1162465466336249	-2.190198261290926	0.12639384062093345	
H	2.4745427982314787	-0.22258926133393211	0.05202396486187735	
H	1.4935192168401854	2.003067029873422	0.016213624335574325	
12

C	-1.4308175166621604	0.09585661861608605	0.020516359254099895	
C	-0.5955667552611738	1.2580615313404908	-0.010779442877591893	
C	0.8041758352076769	1.153880177330785	-0.015337487745595818	
C	-0.7854501243684773	-1.1547823969189823	-0.01691534398975254	
C	0.6067664384871797	-1.237144466227868	0.008267330165586863	
C	1.385301130983831	-0.10801388576215605	-0.00479381704022343	
H	-2.5210519516545036	0.15230249091152745	0.014400408754437082	
H	-1.079447296994815	2.2839244035252704	0.12398773611227465	
H	-1.2970943081690314	-2.120399895628052	-0.10710096930041592	
H	1.1157477080901392	-2.1904551172440785	0.1269470631202773	
H	2.474667482339555	-0.22256664927510023	0.0524432142152091	
H	1.4929619675630756	2.0035631858415583	0.01623345499513838	
12

C	-1.4308868522964933	0.09586743977307112	0.02061909455770921	
C	-0.5959282561472119	1.2580361045755277	-0.010682289464522614	
C	0.8044653947962501	1.1540441895706939	-0.015545361023172515	
C	-0.7857533799398788	-1.154912522524509	-0.0171901261797372	
C	0.6068715495566119	-1.237361601514871	0.008457260358029971	
C	1.3857009278467438	-0.10785924138809538	-0.0048054785622982064	
H	-2.52093988358616	0.15258522638583116	0.014797847060297464	
H	-1.0786632348231016	2.2834168314864827	0.1242300312910777	
H	-1.297688888443554	-2.1199334276595265	-0.10744212963607815	
H	1.115228385741698	-2.190740216086872	0.12747025229497394	
H	2.4747749300805695	-0.22252636059025235	0.05285380927456755	
H	1.4923528533823807	2.0040812573313826	0.01624630575506149	
12

C	-1.4309439874440306	0.09588103043479035	0.020717259548755973	
C	-0.5963010902195685	1.2580168544199541	-0.0105777909360341	
C	0.8047522340636237	1.1542117457978696	-0.015753590690699468	
C	-0.786060835589544	-1.1550451840077585	-0.0174664848213776	
C	0.6069757637294858	-1.2375877037908174	0.008649394535291493	
C	1.3861129149558666	-0.10770115724264233	-0.0048154289405491855	
H	-2.5208133793744163	0.1528854733392387	0.015200974104430377	
H	-1.0778220556244409	2.2827864681092054	0.12442696218157984	
H	-1.298330097919297	-2.1194257512840995	-0.10775455295306538	
H	1.1146891829940917	-2.1910538926880863	0.1279634403128576	
H	2.4748659262704895	-0.22246844480781044	0.05325570610928974	
H	1.4916927039037848	2.0046215983476916	0.01625210853420562	
12

C	-1.4309889278214116	0.0958973944990872	0.020810844583018726	
C	-0.5966848344246234	1.2580036277551137	-0.010465976066624768	
C	0.8050360552532762	1.1543827275062029	-0.015962161340431963	
C	-0.7863722124986153	-1.155180266186735	-0.017744381868358985	
C	0.6070789291577429	-1.2378225387628001	0.0088436985168967	
C	1.3865368457818472	-0.10753976612155915	-0.004823652856454034	
H	-2.5206730468762153	0.15320308904659075	0.01560974599716726	
H	-1.0769252888849685	2.2820352621719153	0.12457877885030093	
H	-1.299018165356505	-2.118878064257988	-0.10803833674978469	
H	1.1141307088431671	-2.191396456449092	0.12842666760447394	
H	2.474941348152031	-0.22239296823631705	0.05364886713262999	
H	1.490982398731016	2.0051845845930663	0.016250797408574966	
12

C	-1.4310216835734786	0.09591653580854341	0.020899841351542967	
C	-0.5970790483780397	1.2579962461198502	-0.010346879474020342	
C	0.8053165579032162	1.1545570105322696	-0.01617105705887138	
C	-0.7866872279097739	-1.155317648535115	-0.01802377761698776	
C	0.6071808957958059	-1.2380658686904085	0.009040136634235831	
C	1.3869724598129134	-0.10737520204360668	-0.004830135541602295	
H	-2.5205195006057974	0.15353792159426397	0.016024116521662284	
H	-1.075974621073267	2.281165486526356	0.12468578381033435	
H	-1.2997533201452276	-2.1182916297501864	-0.10829359272359836	
H	1.1135535763128959	-2.1917681890375436	0.1288599824942017	
H	2.475002162464666	-0.2223000137554675	0.0540332610633034	
H	1.4902228649097473	2.005770610999609	0.016242308563532547	
12

C	-1.43104226938643	0.09593845812337735	0.020984242880379533	
C	-0.5974832746830322	1.257994505479636	-0.010220541649466227	
C	0.8055934393848444	1.154734465313732	-0.01638026141811996	
C	-0.7870055955520407	-1.1554572054904577	-0.01830463074722239	
C	0.6072815156458821	-1.2383174528126872	0.00923867177357713	
C	1.387419482953671	-0.10720760007911452	-0.00483486278248036	
H	-2.520353359689458	0.15388980986831347	0.016444037133718135	
H	-1.07497189589522	2.2801797410682183	0.12474833238389095	
H	-1.300535790533184	-2.117667772452143	-0.10852044635100129	
H	1.1129584009109859	-2.1921693421615447	0.1292634408318077	
H	2.4750494222144805	-0.22218968056632618	0.05440886286372896	
H	1.4894150742462238	2.006380089116636	0.016226580236275844	
12

C	-1.4310507046027336	0.09596316509268463	0.02106404353019852	
C	-0.5978970393008873	1.2579981761009102	-0.010087008970035742	
C	0.8058663954516155	1.1549149571659736	-0.01658975746675469	
C	-0.7873270260737216	-1.1555988067829621	-0.018586898366430425	
C	0.6073806429977062	-1.23857704777573	0.009439265419877932	
C	1.3878776279540221	-0.10703709618160039	-0.004837820923654409	
H	-2.520175245810386	0.1542585835459373	0.01686945695806428	
H	-1.0739191139340927	2.2790809544618353	0.12476683285449894	
H	-1.3013658017542555	-2.117007874459088	-0.10871903643789793	
H	1.112345799108183	-2.1926001353946813	0.12963710562649988	
H	2.475084263145043	-0.22206208390065682	0.054775653654641585	
H	1.4885600405081172	2.0070134443602234	0.016203552648773274	
12

C	-1.4310470133400621	0.09599066021986079	0.02113923899588955	
C	-0.5983198519431762	1.2580070024778003	-0.009946333700415467	
C	0.8061351207962133	1.1550983465762852	-0.01679952772026608	
C	-0.7876512274813023	-1.1557423177842567	-0.018870536055713125	
C	0.6074781346604825	-1.2388444080593848	0.009641877701170443	
C	1.3883465948677158	-0.10686382702289375	-0.004838996869308234	
H	-2.519985781150818	0.1546440630905946	0.017300322780959707	
H	-1.072818431998333	2.2778723852981835	0.1247417464968389	
H	-1.3022435740593814	-2.116313370930912	-0.10888951464148756	
H	1.111716386847414	-2.1930607540620075	0.12998104668552124	
H	2.4751078999113387	-0.22191735468943313	0.05513362060582379	
H	1.4876588165158744	2.0076711131312894	0.016173167931419184	
12

C	-1.4310312246116512	0.0960209468248482	0.021209826306071898	
C	-0.5987512064594035	1.2580207032821917	-0.009798573987367378	
C	0.80639930959917	1.1552844895159793	-0.01700955415103646	
C	-0.787977905585187	-1.1558875998753955	-0.019155497918681975	
C	0.6075738501878981	-1.239119286401726	0.009846467433357943	
C	1.3888260715400427	-0.10668792983217275	-0.004838378083099357	
H	-2.5197855863388807	0.15504605975115482	0.0177365790390127	
H	-1.0716721623194057	2.2765576229866813	0.12467358752267857	
H	-1.303169320652138	-2.115585745541341	-0.10903204496544383	
H	1.1110707780887825	-2.193551347197371	0.13029534025933398	
H	2.4751216219594987	-0.22175563919071375	0.05548275680277959	
H	1.4867124911330838	2.008353539809781	0.016135370037744838	
12

C	-1.4310033724436155	0.09605402800838332	0.021275803822368967	
C	-0.5991905811745655	1.2580389712064552	-0.009643793863235637	
C	0.8066586560775154	1.155473237768834	-0.01721981817794574	
C	-0.7883067644536497	-1.1560345108331769	-0.01944173663257063	
C	0.6076676520975764	-1.2394014342199784	0.010052992165270034	
C	1.3893157341240812	-0.10650954223927785	-0.004835952586300841	
H	-2.5195752784077325	0.1554643755652935	0.018178167804121237	
H	-1.0704827722992745	2.2751405898857344	0.12456292314044033	
H	-1.304143245531852	-2.1148265257257455	-0.10914680323028912	
H	1.1104095833963459	-2.1940720255823396	0.13058006869541	
H	2.475126789115949	-0.2215770985772147	0.05582306108926176	
H	1.4857221861654644	2.0090611736334574	0.01609010465057045	
12

C	-1.4309634959915722	0.09608990661387463	0.021337171238553804	
C	-0.5996374393017265	1.2580614729244752	-0.009482063229367992	
C	0.8069128550586088	1.155664439272984	-0.017430300655802453	
C	-0.7886375068726044	-1.1561829052339296	-0.01972920350147119	
C	0.6077594060847543	-1.2396906020233471	0.010261408223713195	
C	1.3898152476227055	-0.10632880212562887	-0.004831708954163091	
H	-2.519355468774442	0.15589880336770962	0.01862502876447771	
H	-1.0692528835906763	2.2736255420581752	0.12441037338194413	
H	-1.3051655412477559	-2.11403727773939	-0.10923397652106966	
H	1.1097334085724366	-2.1946228598769464	0.13083532010260412	
H	2.475124826890682	-0.22138190848405648	0.05615453788566347	
H	1.4846890531786237	2.0097944654700064	0.016037319080046495	
12

C	-1.4309116396557842	0.09612858518665222	0.021393929579557422	
C	-0.6000912294125565	1.2580878491794847	-0.009313457818141264	
C	0.8071616025573187	1.155857938476608	-0.01764098186458293	
C	-0.7889698348105147	-1.1563326348736729	-0.020017848511501422	
C	0.6078489812279044	-1.2399865398189327	0.010471670758361454	
C	1.3903242664574602	-0.10614584748062994	-0.0048256363105165685	
H	-2.519126761248015	0.15634912680385385	0.019077099201602922	
H	-1.0679852704666037	2.272017068537274	0.12421661068023575	
H	-1.3062363865684177	-2.1132196015391203	-0.10929376261462687	
H	1.1090428533450718	-2.195203878851744	0.1310611880280027	
H	2.4751172215005695	-0.22117025851740194	0.056477196983393305	
H	1.4836142702464938	2.010553864492718	0.015976962154062396	
12

C	-1.430847853193773	0.09617006593077206	0.02144608120017039	
C	-0.600551385960677	1.25811771498816	-0.009138059135047767	
C	0.8074045963552625	1.1560535767059323	-0.017851841498073357	
C	-0.7893034498866951	-1.1564835492041656	-0.02030762038718166	
C	0.6079362501959575	-1.2402889974932396	0.010683733785885994	
C	1.390842435052047	-0.10596081628019759	-0.004817724320456398	
H	-2.518889750077524	0.15681512035030376	0.019534313961095392	
H	-1.0666828575427016	2.2703200892270967	0.1239823592125954	
H	-1.3073559440682176	-2.1123751254970777	-0.10932636938608452	
H	1.1083385101124683	-2.1958150677279558	0.13125777114443318	
H	2.4751055146208834	-0.22094235172456003	0.05679105331368789	
H	1.48249903864638	2.011339814775864	0.015908984103449944	
12

C	-1.4307721918314378	0.09621435066137335	0.021493629784093648	
C	-0.601017329840003	1.2581506599358327	-0.00895595438388411	
C	0.8076415365789025	1.156251192545946	-0.018062858653890623	
C	-0.7896380538456614	-1.1566354957806086	-0.020598466650809222	
C	0.6080210894613045	-1.2405977251658395	0.010897550233915523	
C	1.3913693884287721	-0.10577384638871207	-0.004807963180797078	
H	-2.5186450180377475	0.15729654933934775	0.01999660542628904	
H	-1.0653487170043472	2.2685398517568918	0.12370839405907956	
H	-1.3085243576492107	-2.1115055009900976	-0.1093320142089405	
H	1.1076209627549392	-2.1964563666464016	0.1314251729650371	
H	2.475091297869723	-0.22069840402783653	0.05709612669837027	
H	1.481344579492776	2.0121527518020415	0.015833336435417993	
12

C	-1.4306847163708365	0.09626144075482196	0.0215365803423333	
C	-0.6014884689888652	1.258186248572688	-0.008767236374197792	
C	0.8078721262759903	1.1564506222280018	-0.01827401182215794	
C	-0.7899733490127525	-1.1567883207248932	-0.020890333681179086	
C	0.6081033794576156	-1.240912473566157	0.011113071983687531	
C	1.3919047528524615	-0.10558507543274966	-0.004796343609437907	
H	-2.5183931345603465	0.15779316999179133	0.020463903481200276	
H	-1.0639860652817883	2.2666819271523444	0.12339554014685863	
H	-1.3097417499858566	-2.1106123968418986	-0.10931092333416968	
H	1.106890785511294	-2.197127669257058	0.13156350156444582	
H	2.4750762070422345	-0.2204386436218412	0.057392441572355554	
H	1.4801521303676564	2.012993098946748	0.01574997180776186	
12

C	-1.4305854932937183	0.09631133709551264	0.02157493921154692	
C	-0.6019641990715142	1.2582240209910214	-0.008572003400248374	
C	0.8080960719884767	1.156651700026235	-0.018485278874829675	
C	-0.7903090387623646	-1.15694186919668	-0.021183166773849866	
C	0.6081830047386946	-1.2412329943994156	0.011330249912326833	
C	1.3924481464975074	-0.10539464068017644	-0.004782856832934585	
H	-2.5181346539237213	0.15830472945634902	0.02093613547188857	
H	-1.0625982587465148	2.264752203376696	0.12304467086573073	
H	-1.3110082199215165	-2.1096974936811894	-0.10926333126450714	
H	1.1061485419291606	-2.197828821448634	0.13167286932291378	
H	2.4750619161020433	-0.2201633103369769	0.0576800266857081	
H	1.478922941927244	2.0138612639137814	0.015658843896515017	
12

C	-1.430474594860415	0.09636404001901322	0.021608714052184175	
C	-0.6024439042004608	1.2582634935054502	-0.008370359102035391	
C	0.8083130843225788	1.1568542586634056	-0.018696637055124133	
C	-0.7906448279933962	-1.1570959858675716	-0.02147691020186452	
C	0.6082598541357642	-1.241559040700383	0.011549033934313741	
C	1.392999180136358	-0.10520267892504061	-0.004767494572388875	
H	-2.5178701135070556	0.1588309658570088	0.021413226164103592	
H	-1.0611887888663116	2.262756877678896	0.12265670647821393	
H	-1.3123238398477726	-2.108762478277191	-0.10918948012862913	
H	1.105394783892066	-2.198559620223274	0.13175339269101152	
H	2.4750501309448727	-0.21987265497052633	0.057958914784271454	
H	1.477658274479635	2.014757635111068	0.015559907258574618	
12

C	-1.4303520992033836	0.09641954925161324	0.021637913846408237	
C	-0.6029269575558425	1.2583041591236177	-0.00816241234937398	
C	0.808522878512482	1.157058129722436	-0.01890806296724694	
C	-0.7909804236080157	-1.1572505154082606	-0.021771507277480603	
C	0.6083338209038833	-1.241890367173252	0.011769373041821901	
C	1.3935574578472187	-0.10500932637849877	-0.004750249027772296	
H	-2.517600032115947	0.15937160834875688	0.021895097697368856	
H	-1.0597612785299146	2.2607024514723495	0.1222326128126353	
H	-1.3136886530019485	-2.1078090377397656	-0.10908961904606926	
H	1.1046300507268885	-2.199319812724145	0.13180519197618942	
H	2.475042582959772	-0.2195669385885096	0.05822914227043865	
H	1.4763593945692584	2.0156825780083842	0.015453117191172297	
12

C	-1.430218090414767	0.09647786384617718	0.021662548895779385	
C	-0.6034127220888932	1.258345488216904	-0.00794827709545744	
C	0.8087251749767002	1.1572631440615955	-0.019119532566551987	
C	-0.7913155349900985	-1.1574053029816924	-0.02206690041416064	
C	0.6084048028571911	-1.242226730516573	0.011991215343797029	
C	1.394122577732233	-0.10481471856487602	-0.004731112861153152	
H	-2.5173249083865725	0.1599263771826901	0.022381669535712162	
H	-1.0583194773132027	2.2585957228683893	0.12177339960181958	
H	-1.3151026707242957	-2.1068388536674556	-0.10896400349186758	
H	1.1038548683948275	-2.2001090954233655	0.1318283911523596	
H	2.475041022488364	-0.21924643180944048	0.058490748850036654	
H	1.4750275715821501	2.016636431493188	0.015338429589184337	
