12

C	-4.97030005411979	2.9151513509728177	0.02633406208609804	
C	-4.224333444298591	4.022555733449681	-0.03388845159934317	
C	-2.7293185444844528	3.9873326289104214	-0.02368580072513273	
C	-4.450107394162368	1.6807817453304228	-0.02871382544784614	
C	-3.0267933933713813	1.5915202819394556	-0.0010215345317508336	
C	-2.2181650563414284	2.7856441137661254	0.06773641736656759	
H	-6.030668550026293	2.9244178697529324	0.2536249814858596	
H	-4.763874036531278	4.949561682646445	0.09662223455840818	
H	-4.962807729872745	0.8040578860282405	-0.14172230700772528	
H	-2.538837521708178	0.5810908161300529	-0.0740669827719509	
H	-1.1003817657256236	2.710860977613467	-0.09863025072175771	
H	-2.0942311171781114	4.83445556703686	-0.11639161106073785	
