12

C	-1.3909549999999995	0.10385974192388683	-0	
C	-0.6055349999999998	1.2565297419238868	-0	
C	0.7854250000000004	1.152669741923887	-0	
C	-0.7854249999999999	-1.1526702580761128	-0	
C	0.6055350000000003	-1.256530258076113	0	
C	1.390955	-0.10386025807611292	0	
H	-2.474665	0.18477974192388708	-0	
H	-1.0773050000000002	2.235519741923887	-0	
H	-1.397355	-2.050730258076113	-0	
H	1.0773050000000002	-2.235510258076113	0	
H	2.4746650000000003	-0.18478025807611315	0	
H	1.3973550000000003	2.050739741923887	-0	
12

C	-1.3913673284248496	0.10402022151435063	-0.00004762238309659056	
C	-0.6055760688312071	1.256535946034132	-0.00017337901081143398	
C	0.7860931333381913	1.1528823783925768	0.00010774355252531424	
C	-0.7852769124580664	-1.1523998023797388	0.0001617063950757973	
C	0.6058137718506011	-1.2568800168007865	-0.000012987444292846567	
C	1.3906371533365018	-0.10383527297268591	-0.0001989872777409425	
H	-2.4752278331337427	0.18206258839605352	-0.00007942332602322245	
H	-1.0783938464815266	2.2342839429451784	0.0015629981445590593	
H	-1.3985271989683525	-2.0509635233007057	-0.0007857461214004518	
H	1.0757489534289668	-2.2343020156554196	0.000740700739582187	
H	2.4755791349905887	-0.18335885119522313	0.0006824165041322297	
H	1.3969629713987273	2.0484235555681396	-0.0001723540106856277	
12

C	-1.3917993219167293	0.1041819393103522	-0.00009524817474489002	
C	-0.6056258127979066	1.2565599782407286	-0.00034671652503954256	
C	0.7867718211258741	1.1531108823351468	0.00021543794179353196	
C	-0.7851404163254151	-1.1521460049370669	0.00032340037913927537	
C	0.6061009592368336	-1.2572471629157391	-0.000025955116588799468	
C	1.3903396465907918	-0.10381180907358685	-0.0003979549995140788	
H	-2.4758017159606003	0.1793480126718968	-0.00015892235162356323	
H	-1.0794875801586608	2.2330607091398673	0.0031258337998081942	
H	-1.3997031212411744	-2.051203168735397	-0.0015713705125862659	
H	1.0742014579649437	-2.2331101286508837	0.0014812074079224998	
H	2.4765007722991754	-0.1819389901858846	0.0013647805098177018	
H	1.3965819579024605	2.046124051480107	-0.00034453376439471035	
12

C	-1.3922506936248413	0.1043446433243299	-0.00014288102525809488	
C	-0.6056842210915192	1.2566016413394774	-0.0005199718241514281	
C	0.7874603452552296	1.153354575956413	0.0003230342619497598	
C	-0.7850158343598262	-1.1519089866055636	0.0004850690899417902	
C	0.6063962894855178	-1.2576310531330963	-0.000038883895401610936	
C	1.3900628630329033	-0.10378989677657939	-0.0005968827917545893	
H	-2.4763865819984625	0.17663775989904237	-0.0002385720837788703	
H	-1.0805862591930029	2.2318525876971176	0.00468835412498362	
H	-1.400880235872871	-2.0514464028136397	-0.0023567459157383696	
H	1.072666247719504	-2.2319409869718077	0.0022213343686132807	
H	2.4774263463217783	-0.18052140207559583	0.0020470322084698996	
H	1.3962167899653044	2.0438488288634757	-0.0005163695266996939	
12

C	-1.3927211450427197	0.10450808088185704	-0.00019052483420422015	
C	-0.6057512778646648	1.25666072780301	-0.0006931049761107283	
C	0.7881579764272193	1.153612763089341	0.0004304838810338545	
C	-0.7849034787355398	-1.1516888534108474	0.0006466992179289201	
C	0.6066994820685008	-1.2580310271564523	-0.00005175532985544153	
C	1.3898071682812851	-0.1037695644330487	-0.0007957494608302297	
H	-2.4769823746365427	0.17393357086246242	-0.0003184467887701464	
H	-1.08168995012951	2.2306621298858147	0.006250416076786076	
H	-1.402056051915187	-2.0516904985669093	-0.003141739760051428	
H	1.071147081253884	-2.230801055312669	0.002960904621929697	
H	2.4783523624439567	-0.17910682492621613	0.002729104647190411	
H	1.3958723731009561	2.0416055839419993	-0.0006876962791510251	
12

C	-1.3932103664077025	0.10467199891634804	-0.00023818375666192102	
C	-0.605826962585805	1.2567370205399295	-0.0008660768452373841	
C	0.7888639762361325	1.15388473185085	0.0005377384523101237	
C	-0.7848036503342353	-1.1514856960823971	0.0008082770241396833	
C	0.607010249587829	-1.2584464100092778	-0.00006455165401903595	
C	1.389572909474126	-0.10375083825026017	-0.0009945329988306387	
H	-2.4775890461597654	0.1712371805849183	-0.0003986199404620256	
H	-1.0827987249103483	2.229491882875371	0.007811886486182911	
H	-1.4032281252974557	-2.0519328025919177	-0.003926214373802307	
H	1.0696477282099113	-2.229696846908303	0.0036997499345499834	
H	2.479275408106494	-0.17769600757410337	0.0034109239245806032	
H	1.3955536669374726	2.0394020788444656	-0.0008583538777286178	
12

C	-1.3937180371112743	0.10483614425686186	-0.00028586221294448605	
C	-0.6059112504049577	1.256830293657966	-0.001038849096894369	
C	0.7895775994648195	1.1541697575896648	0.0006447499275256976	
C	-0.7847166380792199	-1.1512995896413662	0.0009697883631027989	
C	0.6073282988526162	-1.258876514556497	-0.00007725579982246429	
C	1.3893604145059313	-0.10373374220413131	-0.0011932105889757051	
H	-2.4782065567424754	0.16855031693465664	-0.0004791641795589497	
H	-1.0839126579132572	2.228344381712833	0.009372642080526324	
H	-1.4043940653591116	-2.052170743500066	-0.004710027233954089	
H	1.068171954999033	-2.228634895125995	0.004437710873359276	
H	2.480192163199087	-0.17628970929495488	0.004092409420037311	
H	1.3952656619275225	2.0372461071724333	-0.0010281871699381452	
12

C	-1.3942438261204264	0.1050002639288467	-0.00033356488949535065	
C	-0.6060041124945001	1.2569403131967871	-0.001211384193967867	
C	0.7902980964395946	1.1544671059728169	0.0007514705616368716	
C	-0.7846427182787032	-1.1511305930204878	0.0011312186916712574	
C	0.6076533320219031	-1.2593206442153504	-0.00008985139232547101	
C	1.3891699913070141	-0.10371829795846785	-0.0013917586171046917	
H	-2.4788348734308654	0.16587469927067844	-0.0005601512813044331	
H	-1.0850318230700406	2.2272221415181064	0.010932569473214172	
H	-1.4055515412652548	-2.0524018400819455	-0.005493031264046309	
H	1.0667235096768761	-2.2276217230773767	0.005174636774465992	
H	2.4810994101532837	-0.17488869938650495	0.004773474058922933	
H	1.3950133550598942	2.0351454582350943	-0.00119704606541071	
12

C	-1.3947873924064045	0.1051641054423133	-0.0003812967489225238	
C	-0.6061055164481021	1.25706683793459	-0.0013836453956500012	
C	0.7910247155036062	1.154776036199065	0.000857852915974215	
C	-0.7845821540308479	-1.1509787487388632	0.0012925530985441562	
C	0.6079850477996747	-1.2597780957534785	-0.00010232274187906143	
C	1.3890019271845406	-0.10370452479318308	-0.0015901526837767738	
H	-2.4794739690924055	0.16321203708933177	-0.0006416520920819494	
H	-1.0861562906051307	2.226127649029559	0.012491565087571722	
H	-1.4066982879719472	-2.0526237088453954	-0.006275075147831612	
H	1.0653061064615583	-2.2266638122722586	0.0059103855711458665	
H	2.4819940433564165	-0.17349375669382724	0.005454024606395313	
H	1.3948017244930286	2.0331078798491915	-0.001364785564967559	
12

C	-1.395348385383082	0.10532741707779292	-0.0004290630322192498	
C	-0.6062154266261958	1.2572096201984362	-0.001555596746833408	
C	0.7917567055165421	1.155095804347787	0.0009638498582303645	
C	-0.7845351946613985	-1.1508440826274284	0.0014537763278323031	
C	0.608323142661809	-1.2602481621791923	-0.00011465483246873619	
C	1.388856488225889	-0.10369243954381717	-0.0017883676190132405	
H	-2.4801238213571004	0.16056402869889863	-0.0007237364999687158	
H	-1.0872861237035976	2.2250633541022875	0.014049535005189372	
H	-1.407832111852132	-2.052834071009476	-0.00705600364227702	
H	1.0639234099262813	-2.2257675703047908	0.006644823549200766	
H	2.482873077935139	-0.17210566905689287	0.006133961984825829	
H	1.3946357031557033	2.0311410397733134	-0.0015312657419912386	
12

C	-1.3959264453582296	0.10548994818075046	-0.0004768692658046693	
C	-0.6063338045139696	1.2573684066726867	-0.0017272030730864161	
C	0.7924933185029497	1.1554256669353307	0.0010694145716218819	
C	-0.7845020751946231	-1.1507266036097945	0.001614872814085527	
C	0.608667312111066	-1.2607301357197853	-0.00012683331115297106	
C	1.38873391876138	-0.10368205654523771	-0.0019863774975866252	
H	-2.4807844115284143	0.15793235992219376	-0.0008064734067584869	
H	-1.0884213751205825	2.2240316611800486	0.015606394722745465	
H	-1.4089508959760553	-2.0530307589395713	-0.00783565786469557	
H	1.0625790189347764	-2.224939297713106	0.007377825000490019	
H	2.4837336579106073	-0.17072523267974377	0.006813181610926942	
H	1.3945201506861316	2.0292524848852573	-0.001696351676959287	
12

C	-1.3965212039685326	0.10565144943394773	-0.0005247212617992829	
C	-0.6064606091224828	1.2575429392162838	-0.0018984299442104196	
C	0.7932338124282425	1.1557648845953865	0.0011745005273927907	
C	-0.784483015897973	-1.150626303518515	0.001775826693959686	
C	0.6090172519796455	-1.2612233108626434	-0.00013884443669361172	
C	1.3886344408961633	-0.10367338758605635	-0.0021841556603141507	
H	-2.4814557235577204	0.15531870279112842	-0.0008899307152077106	
H	-1.089562083808779	2.223034920925023	0.017162068979415617	
H	-1.410052604969807	-2.0532117220303476	-0.008613875813535636	
H	1.0612764503312613	-2.224185154072211	0.008109271758858777	
H	2.484573063681388	-0.1693532514686	0.007491573776362603	
H	1.3944598242346025	2.0274495988373284	-0.0018599132940927982	
12

C	-1.397132284637986	0.1058116731421208	-0.0005726251174023809	
C	-0.606595797390588	1.2577329556695658	-0.002069243662680264	
C	0.793977453990085	1.1561127257837294	0.0012790614769932446	
C	-0.7844782218382752	-1.1505431569677385	0.0019366218478071664	
C	0.6093726597555102	-1.2617269875047497	-0.00015067504839678397	
C	1.3885582540915093	-0.10366644186961992	-0.0023816747356500824	
H	-2.4821377429531783	0.15272471429566345	-0.0009741753139553253	
H	-1.0907082714967054	2.2220754218397696	0.018716491400510137	
H	-1.4111352895700155	-2.0533750320587756	-0.009390492666312443	
H	1.060019122293381	-2.2235111230424436	0.008839052655229242	
H	2.4853887189199524	-0.16799053628842908	0.008169024007549363	
H	1.3944593491415251	2.0257395597386014	-0.002021825198593225	
12

C	-1.3977593030357545	0.10597037350626815	-0.0006205872236866879	
C	-0.6067393245851975	1.2579381906574845	-0.0022396112348496166	
C	0.7947235211312228	1.1564684700707182	0.0013830514426029603	
C	-0.784487882484439	-1.1504771212677374	0.002097241929994426	
C	0.6097332359295417	-1.2622404741375837	-0.00016231251608867517	
C	1.3885055348003903	-0.1036612259845909	-0.0025789066624258127	
H	-2.4828304557127305	0.15015203514759407	-0.0010592730200462363	
H	-1.0918599393014161	2.2211553820609886	0.02026960410455961	
H	-1.4121970908177077	-2.0535188880177513	-0.010165341182923475	
H	1.058810337638123	-2.2229229770132832	0.009567062808330763	
H	2.4861781968576593	-0.16663790417674343	0.008845413491770081	
H	1.39452319292391	2.0241293027977143	-0.002181966466517397	
12

C	-1.3984018675251177	0.10612730690336046	-0.0006686142625509325	
C	-0.606891144706945	1.25815837636765	-0.0024095003476672073	
C	0.7954713057010998	1.1568314116368574	0.0014864247063309459	
C	-0.7845121713505433	-1.1504281363776132	0.002257670405681793	
C	0.6100986853169241	-1.262763091000021	-0.00017374469187210457	
C	1.3884764361567101	-0.1036577438678353	-0.002775822717075527	
H	-2.483533847258218	0.14760228858744004	-0.0011452885656788561	
H	-1.0930170643969994	2.2202769413450056	0.021821357225033682	
H	-1.4132362439545294	-2.0536416204695382	-0.010938252020403988	
H	1.057653267549367	-2.2224262423294383	0.010293202821024005	
H	2.4869392260010112	-0.165296177502256	0.009520619476605487	
H	1.3946556375023789	2.0226254805753774	-0.002340220334537523	
12

C	-1.3990595796310008	0.10628223214752143	-0.0007167132134415522	
C	-0.6070512108577626	1.258393243328978	-0.0025788793148215456	
C	0.796220116313862	1.1572008631145718	0.0015891357780193262	
C	-0.7845512456899462	-1.1503961249063253	0.0024178905722900307	
C	0.610468718370723	-1.2632941731827745	-0.0001849598330195419	
C	1.3884710877228277	-0.10365599680500669	-0.0029723935353432604	
H	-2.484247901404649	0.14507707917316254	-0.001232285586655649	
H	-1.0941795967088288	2.2194421532699216	0.023371708528814233	
H	-1.4142510818522624	-2.0537416953630636	-0.011709054327205027	
H	1.056550935650854	-2.222026164981458	0.011017377938262048	
H	2.487669695210282	-0.1639661831251136	0.010194515714086257	
H	1.3948607487483418	2.021234419504107	-0.002496473931741986	
12

C	-1.3997320344926565	0.10643491075505102	-0.0007648913395325029	
C	-0.6072194756297978	1.258642521161169	-0.0027477170466753296	
C	0.7969692811660586	1.1575761592999103	0.0016911393687137003	
C	-0.7846052462112629	-1.1503809921444395	0.0025778856017670423	
C	0.610843052342783	-1.2638330734422667	-0.0001959465441334222	
C	1.3884895952726413	-0.10365598341140421	-0.0031685891455363177	
H	-2.484972599332284	0.14257799163614399	-0.0013203266498412343	
H	-1.0953474557163527	2.218652977683605	0.024920622820770014	
H	-1.415240038244217	-2.0538177174275907	-0.012477576044913419	
H	1.0555062039205558	-2.221727679918402	0.011739497155774891	
H	2.4883676582908043	-0.16264875148366598	0.010866972861607642	
H	1.3951423468042743	2.019962077739993	-0.002650617868074144	
12

C	-1.400418821315739	0.10658510720426596	-0.000813156193466506	
C	-0.6073958914693324	1.2589059393000737	-0.002915983006847844	
C	0.7977181507701273	1.1579566607724392	0.0017923903670855137	
C	-0.7846742968400162	-1.150382626132443	0.0027376385722004144	
C	0.6112214124757535	-1.2643791650728795	-0.00020669369742709753	
C	1.3885320406277402	-0.10365769962283282	-0.0033643789951357346	
H	-2.48570791858059	0.14010658975454496	-0.0014094732235531361	
H	-1.0965205273481151	2.217911273453358	0.026468071353570776	
H	-1.416201650600686	-2.0538684331035983	-0.013243644344018196	
H	1.0545217584248912	-2.2215353797147532	0.012459472153891043	
H	2.4890313380076297	-0.161344715666015	0.011537858943678087	
H	1.3955039771581441	2.018814004265413	-0.0028025458111053305	
12

C	-1.4011195238219338	0.10673258918850652	-0.000861515613666367	
C	-0.6075804109810479	1.259183227692603	-0.0030836471646748043	
C	0.7984661005594468	1.15834175739279	0.0018928438083006829	
C	-0.7847585044909935	-1.150400897761285	0.0028971325024409605	
C	0.6116035332011307	-1.2649318448345304	-0.00021719034889706608	
C	1.388598481531347	-0.10366113869255568	-0.0035597319826408853	
H	-2.486453832067781	0.13766441525757847	-0.0014997856708554398	
H	-1.0976986610129271	2.2172187915713533	0.028014031192080936	
H	-1.4171345627255936	-2.0538927330802452	-0.014007086043601265	
H	1.0536000948642568	-2.2214534825580703	0.013177216166650092	
H	2.4896591296245942	-0.16005491045817816	0.012207039799611972	
H	1.3959488826612116	2.0177952995270156	-0.002952154025745671	
12

C	-1.4018337206933882	0.10687712786259605	-0.0009099777206316039	
C	-0.607772987239436	1.2594741174593922	-0.0032506799451991943	
C	0.7992125333772816	1.1587308715915021	0.001992454841607296	
C	-0.7848579588783248	-1.1504356608999968	0.003056350386345637	
C	0.6119891592743394	-1.265490535732118	-0.00022742564865201444	
C	1.3886889515600243	-0.10366629119290847	-0.0037546164897115757	
H	-2.487210307139619	0.13525298675915517	-0.0015913232467135593	
H	-1.0988816668005463	2.216577168677331	0.0295584845359246	
H	-1.418037527080844	-2.0538896544525476	-0.014767728032394706	
H	1.052743505065714	-2.2214858020064714	0.013892642785843677	
H	2.49024960396622	-0.15878017137463496	0.012874379537348041	
H	1.3964799771586904	2.0169105785613746	-0.0030993408838323093	
12

C	-1.40256098600316	0.10701849806685614	-0.0009585509122609044	
C	-0.6079735740999427	1.259778341523181	-0.003417052176522468	
C	0.7999568818169812	1.159123461411672	0.0020911786968431153	
C	-0.7849727323791885	-1.1504867525332398	0.003215275226853157	
C	0.6123780468416439	-1.2660546896141154	-0.00023738874700929437	
C	1.3888034600680483	-0.10367314502131204	-0.003949000414448821	
H	-2.4879773046528317	0.13287379872087815	-0.0016841440970900338	
H	-1.1000693128629644	2.2159879210147766	0.031101418005038253	
H	-1.4189094068375692	-2.053858382500884	-0.015525397688919739	
H	1.0519540645876024	-2.2216357188959326	0.014605664713029	
H	2.490801510050292	-0.1575213336768883	0.013539740990601427	
H	1.3970998210447165	2.0161639370431956	-0.0032440063520527765	
12

C	-1.4033008896425991	0.10715647855376667	-0.0010072438582779993	
C	-0.6081821264882185	1.2600956351978427	-0.0035827350348568566	
C	0.8006986103824677	1.1595190232914194	0.002188970650347156	
C	-0.7851028799280194	-1.1505539929372446	0.0033738900697005652	
C	0.6127699644086826	-1.2666237895519987	-0.00024706869766316956	
C	1.3889419921694004	-0.10368168540924073	-0.004142851205629225	
H	-2.488754778093354	0.13052832044577126	-0.0017783052596703278	
H	-1.1012613229989963	2.2154524388576498	0.03264282189316497	
H	-1.4197491776266582	-2.05379825205695	-0.0162799232984274	
H	1.0512336216281304	-2.2219061558444633	0.015316192476301232	
H	2.491313777234764	-0.1562792313787365	0.014202986176729193	
H	1.3978105988679483	2.0155589204212156	-0.0033860514650786533	
12

C	-1.404052997733245	0.10729085223037095	-0.001056065493806448	
C	-0.6083986006758949	1.2604257367198173	-0.0037476999876753375	
C	0.8014372174304792	1.1599170945318173	0.002285785991092916	
C	-0.785248438938225	-1.1506371858863642	0.003532178036713369	
C	0.613164693709792	-1.2671973519932438	-0.0002564543589114226	
C	1.3891045087535265	-0.10369189493443742	-0.00433613589780001	
H	-2.4895426727307814	0.1282179951035864	-0.0018738626659158626	
H	-1.1024573744634323	2.2149719814419164	0.034182689394632364	
H	-1.4205559290316274	-2.0537087485206587	-0.017031134466359264	
H	1.0505837872517598	-2.2222995544171025	0.01602413312449517	
H	2.491785516910101	-0.15505469624285473	0.014863976753900807	
H	1.398614099440173	2.015098496772793	-0.00352537779412096	
12

C	-1.4048168730339035	0.10742140638804121	-0.0011050250120457799	
C	-0.6086229545258925	1.2607683877407783	-0.003911918735459623	
C	0.8021722368707603	1.1603172554172008	0.0023815799878010675	
C	-0.7854094292536854	-1.1507361188818306	0.0036901223585257587	
C	0.6135620304665745	-1.267774928658728	-0.0002655342943340204	
C	1.3892909465306105	-0.10370375353603259	-0.0045288211471677135	
H	-2.4903409248154817	0.12594423878633834	-0.001970871144147833	
H	-1.1036570960210346	2.214547672433146	0.0357210158100966	
H	-1.421328865832174	-2.0535895085433586	-0.01777886252735726	
H	1.0500059270708137	-2.222817855284211	0.01672938891638564	
H	2.4922160237780187	-0.15384855677461645	0.015522574476500395	
H	1.3995116987283152	2.014785033757396	-0.0036618869204683535	
12

C	-1.405592075343316	0.10754793291760661	-0.001154131856058196	
C	-0.6088551477043411	1.261123333780888	-0.004075363152534122	
C	0.8029032396038923	1.160719130960113	0.002476307857791553	
C	-0.7855858531292207	-1.1508505634012343	0.0038477064066130056	
C	0.6139617850241924	-1.26835610815572	-0.0002742966744411999	
C	1.3895012181046298	-0.10371723853232198	-0.004720873268183082	
H	-2.491149460819989	0.12370843959483814	-0.0020693844233760964	
H	-1.104860066265196	2.21418049595818	0.03725779773723374	
H	-1.4220673090054976	-2.0534403203898592	-0.018522940948907003	
H	1.0495011545178214	-2.223462481704265	0.017431856023926332	
H	2.492604776730777	-0.15266163721642018	0.01617864164739291	
H	1.4005043457689366	2.0146202799853077	-0.0037954799236703594	
12

C	-1.4063781618907363	0.10767022853986617	-0.0012033957095547525	
C	-0.6090951418636903	1.2614903246263602	-0.004238005230894711	
C	0.8036298346756497	1.1611223922365443	0.002569924737388195	
C	-0.7857776952311896	-1.1509802751818097	0.004004913729747103	
C	0.6143637828508004	-1.2689405172978718	-0.00028272918513143125	
C	1.3897352120782251	-0.10373232462448237	-0.004912258269439162	
H	-2.491968196735446	0.12151195673537586	-0.0021694551298529047	
H	-1.1060658122324096	2.2138712932607665	0.03879303223765125	
H	-1.4227706964746538	-2.053261123987961	-0.019263205714563903	
H	1.0490703257746508	-2.2242343265327262	0.018131423237122506	
H	2.492951439306224	-0.15149475653656372	0.016832041578875464	
H	1.4015925518302392	2.0146053510666264	-0.003926056858432104	
12

C	-1.4071746877199973	0.1077880949618912	-0.001252826486767953	
C	-0.6093429008078887	1.2618691146971575	-0.004399817013576173	
C	0.8043516701663823	1.1615267573385148	0.0026623856597830006	
C	-0.7859849226904253	-1.151124994480353	0.004161728072722253	
C	0.6147678649260246	-1.2695278220788704	-0.0002908189278343417	
C	1.3899927931669478	-0.10374898395018135	-0.005102941893282789	
H	-2.492797037393684	0.11935611970749022	-0.002271134812359043	
H	-1.1072738082578695	2.2136207598599777	0.04032671604649662	
H	-1.4234385836672783	-2.053052010677159	-0.019999495741329008	
H	1.0487140364526601	-2.225133742969907	0.018827970817155624	
H	2.493255859879876	-0.15034872743859773	0.01748263900020832	
H	1.4027763828634077	2.014740720514039	-0.004053516374150473	
12

C	-1.4079812060584462	0.10790133909061458	-0.0013024343226911606	
C	-0.6095983906207612	1.2622594633430564	-0.004560770540469374	
C	0.8050684337605996	1.161931991868182	0.002753645529323073	
C	-0.786207485157746	-1.1512844463911884	0.0043181334135989746	
C	0.6151738879688142	-1.2701177283458702	-0.0002985523346059664	
C	1.3902738023534769	-0.1037671860940673	-0.005292889653497885	
H	-2.493635875863787	0.11724222746125444	-0.0023744739283565993	
H	-1.1084834751913044	2.2134294434386548	0.04185884473654018	
H	-1.4240706437986899	-2.052813222656406	-0.020731653249529372	
H	1.04843262000769	-2.2261605391003356	0.019521369307296102	
H	2.4935180713715988	-0.14922435535928372	0.01813030052314344	
H	1.4040554555239355	2.0150262156598693	-0.0041777552614596265	
12

C	-1.408797268674725	0.10800977321782654	-0.0013522295608430841	
C	-0.6098615797519926	1.2626611350920978	-0.0047208377889995864	
C	0.805779853003646	1.1623379090107697	0.0028436591067003245	
C	-0.7864453148952534	-1.1514583411687842	0.004474113990038645	
C	0.6155817245420511	-1.2707099821181387	-0.0003059150900094505	
C	1.3905780570538797	-0.10378689812502091	-0.00548206687356745	
H	-2.494484592894714	0.1151715476032154	-0.002479521852748246	
H	-1.1096941799103217	2.2132977423330993	0.0433894119156911	
H	-1.4246666679383044	-2.052545152136646	-0.02145952413654474	
H	1.0482261479369415	-2.227313976342189	0.020211478476588506	
H	2.4937382906217755	-0.148122437481445	0.018774895058669725	
H	1.4054289367105397	2.01546101862647	-0.004298668092640413	
12

C	-1.4096224262246255	0.10811321519667667	-0.0014022227412653276	
C	-0.6101324390618736	1.2630738998449138	-0.0048799906185118935	
C	0.8064856952425447	1.1627443691770052	0.0029323809965110964	
C	-0.7866983268946285	-1.1516463745670054	0.004629654326712395	
C	0.6159912630186983	-1.271304369568352	-0.0003128920582582881	
C	1.3909053513077652	-0.10380808463609655	-0.005670438724927487	
H	-2.495343056406931	0.11314531563795144	-0.0025863268818788173	
H	-1.1109052351557493	2.213225904666061	0.04491840843595464	
H	-1.4252265648428868	-2.0522483402002685	-0.022182958340032678	
H	1.0480944317409036	-2.2285927718204026	0.020898146360575846	
H	2.4939169174001132	-0.14704376175375744	0.019416294233917317	
H	1.4068955466611206	2.0160436723415898	-0.004416146917406403	
12

C	-1.4104562285843887	0.1082114886099394	-0.0014524245875852295	
C	-0.6104109418338264	1.2634975330154472	-0.005038200716214084	
C	0.8071857672636338	1.1631512792214798	0.0030197656406444813	
C	-0.7869664190212908	-1.1518482281953668	0.00478473926105654	
C	0.6164024074045907	-1.2719007166778982	-0.0003194672199243093	
C	1.3912554559987633	-0.10383070777745465	-0.005857970265523111	
H	-2.496211121039322	0.11116473423966831	-0.00269493623650582	
H	-1.1121158996989504	2.2132140281262473	0.046445821626413995	
H	-1.4257503605542303	-2.051923475364071	-0.022901810191122456	
H	1.0480370266209529	-2.2299951046358206	0.02158120841623623	
H	2.494054533044966	-0.14598910592340958	0.02005437279745663	
H	1.4084535655687676	2.016772091514349	-0.00453008102114029	
12

C	-1.4112982251712856	0.10830442292990983	-0.0015028459933982422	
C	-0.6106970637605652	1.263931815618799	-0.005195439545785982	
C	0.8078799146400982	1.1635585912492032	0.003105767317499112	
C	-0.7872494721585689	-1.1520635698947514	0.00493935396755118	
C	0.6168150770018876	-1.2724988885614323	-0.00032562361856557277	
C	1.391628119099867	-0.1038547272914275	-0.006044626478288492	
H	-2.497088627748014	0.10923097255500404	-0.0028053960639349037	
H	-1.113325378840945	2.2132620603924034	0.04797163455524403	
H	-1.426238197756776	-2.051571391841465	-0.023615938755873908	
H	1.0480532368599154	-2.23151862595074	0.022260486804767235	
H	2.4941518987293834	-0.14495923658253362	0.02068900901190915	
H	1.4101008436255054	2.0176435784178803	-0.004640356750782389	
12

C	-1.4121479652514894	0.10839185366975149	-0.0015534980080062855	
C	-0.6109907828972864	1.2643765343062778	-0.0053516782990908375	
C	0.8085680207944203	1.1639663010296832	0.0031903401472117934	
C	-0.7875473503951066	-1.1522920541293677	0.005093483980573933	
C	0.617229205961726	-1.2730987884749536	-0.00033134331826059323	
C	1.3920230659445234	-0.10388010054979664	-0.006230372309416891	
H	-2.4979754034601527	0.10734516553645612	-0.002917751439196655	
H	-1.1145328252438562	2.2133698001957516	0.049495825326599935	
H	-1.4266903348889857	-2.0511930674978327	-0.024325208163845882	
H	1.048142122813539	-2.2331604727672487	0.022935789812850625	
H	2.4942099533463287	-0.14395490822877785	0.02132008503234753	
H	1.4118348143584158	2.0186548432595535	-0.00474685741162161	
12

C	-1.4130049982354587	0.10847362252620861	-0.0016043918203801975	
C	-0.6112920795804446	1.2648314813485788	-0.005506887851373653	
C	0.8092500057895213	1.1643744460426801	0.003273438103070215	
C	-0.7878599012515753	-1.1525333223957772	0.0052471152162031276	
C	0.6176447427288205	-1.2737003565217433	-0.0003366073737367825	
C	1.3924399995246133	-0.103906782593457	-0.006415172706436131	
H	-2.498871260782648	0.10550841330662762	-0.0030320463817018104	
H	-1.1157373400929285	2.2135368990084694	0.05101836641412719	
H	-1.4271071450007065	-2.0507896214918673	-0.025029487926697604	
H	1.048302509422699	-2.2349172852269703	0.023606911438795706	
H	2.4942298110037022	-0.14297686234049065	0.0219474872654271	
H	1.4136525110762563	2.0198020288578222	-0.004849463233834248	
12

C	-1.4138688739604715	0.10854957751340702	-0.001655538745346785	
C	-0.6116009362859705	1.2652964545660454	-0.005661038719785971	
C	0.8099258248388933	1.16478310318681	0.0033550150286203125	
C	-0.7881869559367614	-1.152787003651409	0.005400233990963269	
C	0.6180616493783785	-1.2743035680771295	-0.00034139580997796315	
C	1.392878600816882	-0.10393472617429896	-0.006598992655903822	
H	-2.4997759977655183	0.10372178055279611	-0.003148323822345214	
H	-1.1169379745782197	2.2137628633462536	0.052539224051715634	
H	-1.4274891143498167	-2.050362311587217	-0.025728653229638576	
H	1.048532996116089	-2.236785227176538	0.024273631078013547	
H	2.4942127581165123	-0.1420258264719503	0.02257110671994398	
H	1.4155505862100726	2.021080739293192	-0.004948051420579555	
12

C	-1.414739142957995	0.10861957308271962	-0.0017069502076218917	
C	-0.6119173374787241	1.265771257211532	-0.005814101027890873	
C	0.8105954666165563	1.165192386188691	0.0034350246608912246	
C	-0.7885283296363731	-1.1530527147567566	0.005552827040151997	
C	0.6184799008594158	-1.2749084319657817	-0.0003456876149548859	
C	1.3933385291396017	-0.10396388179970051	-0.006781797219255037	
H	-2.500689397722832	0.10198629594798285	-0.0032666256176822708	
H	-1.1181337316914552	2.21404705766266	0.0540583576612322	
H	-1.427836840725285	-2.0499125311280335	-0.026422585216498533	
H	1.0488319679225058	-2.2387600096104623	0.02493571341251927	
H	2.4941602500814293	-0.14110251336302876	0.02319083933156265	
H	1.41752533320615	2.022486072041149	-0.005042496258536619	
12

C	-1.415615356691833	0.1086834702430241	-0.0017586377248694515	
C	-0.6122412694562592	1.2662556977894044	-0.00596604447330796	
C	0.8112589513848745	1.1656024427570801	0.003513420659206105	
C	-0.7888838218398515	-1.1533300609343489	0.005704881533616194	
C	0.6188994841455759	-1.27551498839181	-0.0003494607455321048	
C	1.3938194225457567	-0.10399419777961126	-0.006963551569073218	
H	-2.5016112291053183	0.10030295160241999	-0.003386992545766494	
H	-1.1193235683250946	2.214388707814065	0.055575719340800626	
H	-1.4281510314538595	-2.049441805614433	-0.02711117125097763	
H	1.0491976077789105	-2.240836916990051	0.025592908441663682	
H	2.494073907466627	-0.14020762006630294	0.023806586265307104	
H	1.4195727106196026	2.0240126530776275	-0.005132669298441757	
12

C	-1.4164970677972288	0.1087411366775408	-0.0018106128908636204	
C	-0.6125727201600567	1.2667495898384524	-0.006116838300866167	
C	0.8119163289357536	1.1660134514920903	0.003590156639432604	
C	-0.7892532166913014	-1.1536186362630723	0.005856385089658794	
C	0.6193203973086043	-1.2761233066563658	-0.000352692145095925	
C	1.3943208982485924	-0.10402562027673773	-0.007144221023890309	
H	-2.5025412454255678	0.09867270254421177	-0.003509464301719319	
H	-1.120506397663506	2.2147869050683373	0.05709125341041442	
H	-1.428432501120809	-2.048951788923647	-0.02779430515748289	
H	1.0496279098502213	-2.2430108360280046	0.02624495166999091	
H	2.4939555117735903	-0.139341827094859	0.024418254196299394	
H	1.4216883683539754	2.0256546748590054	-0.005218439602555061	
12

C	-1.417383830314422	0.10879244684353521	-0.001862887356294597	
C	-0.6129116789557285	1.2672527516815468	-0.006266451279445714	
C	0.812567676389504	1.1664256186133446	0.0036651862136273306	
C	-0.7896362833722163	-1.1539180241953593	0.006007325786194782	
C	0.6197426485283866	-1.2767334826942025	-0.0003553577742181236	
C	1.3948425530819668	-0.1040580933581108	-0.0073237710838811015	
H	-2.5034791852374125	0.09709646622975433	-0.0036340794921004946	
H	-1.1216810918496838	2.2152406106272715	0.05860489602028425	
H	-1.4286821690009273	-2.0484442591701364	-0.028471887438096075	
H	1.050120693695171	-2.2452762865835827	0.026891564440826767	
H	2.4938070007529345	-0.138505797592904	0.02502575556861231	
H	1.423867675521086	2.027405936420563	-0.005299674053397667	
12

C	-1.4182751999135457	0.10883728206342717	-0.001915472816213253	
C	-0.6132581363892785	1.2677650061382049	-0.006414851690893655	
C	0.8132130959093217	1.1668391745864795	0.003738463031554293	
C	-0.7900327765134226	-1.1542277980973052	0.006157692172054876	
C	0.620166255101931	-1.2773456365734965	-0.00035743264434052807	
C	1.3953839639952705	-0.10409155905165335	-0.007502167457359513	
H	-2.504424772168537	0.09557512207531621	-0.0037608756329117203	
H	-1.1228464849149933	2.2157486606286767	0.06011657481785497	
H	-1.4289010561884719	-2.0479211142017366	-0.029143825470893753	
H	1.0506736185145682	-2.2476274529438416	0.027532454399526278	
H	2.4936304632604602	-0.13770017652673996	0.02562900881989008	
H	1.4261057492591833	2.0292598846672756	-0.005376237706320121	
12

C	-1.4191707341042779	0.10887553062332637	-0.0019683809865796514	
C	-0.6136120839220571	1.268286180185098	-0.006562007315108222	
C	0.8138527122972707	1.1672543706132934	0.0038099408284313773	
C	-0.7904424366306468	-1.1545475218253196	0.006307473275995305	
C	0.6205912425113171	-1.2779599101387438	-0.0003588908662177095	
C	1.3959446885961564	-0.10412595739403689	-0.007679376095333905	
H	-2.5053777150325143	0.09410951101948366	-0.003889889131889204	
H	-1.1240013759511958	2.216309771641515	0.06162620871235538	
H	-1.4290902823794667	-2.0473843666639557	-0.029810033716237774	
H	1.0512841965894533	-2.250058213492956	0.028167315979998737	
H	2.4934281335845347	-0.13692558990515152	0.026227938582243936	
H	1.428397484849652	2.0312096573194216	-0.0054479941973768166	
12

C	-1.4200699924437912	0.10890708781406251	-0.0020216235902032397	
C	-0.613973513588972	1.268816104618871	-0.0067078854271689775	
C	0.814486670559121	1.1676714751654782	0.003879573471789977	
C	-0.7908649906517319	-1.1548767503016522	0.006456658607782357	
C	0.621017643416538	-1.2785764642782032	-0.0003597056973230025	
C	1.3965242657178187	-0.10416122651175039	-0.007855363220637214	
H	-2.5063377079070586	0.09270043511700238	-0.004021155290883928	
H	-1.125144532530236	2.216922546508523	0.06313370764062728	
H	-1.429251062374889	-2.0468361386833327	-0.030470433776645964	
H	1.0519498084872292	-2.2525621745320747	0.02879583110222646	
H	2.4932023853652385	-0.13618264401061553	0.026822475853168014	
H	1.4307375855396793	2.03324812530654	-0.00551480617636961	
12

C	-1.4209725367242416	0.10893185601477591	-0.0020752123432333618	
C	-0.6143424175891109	1.2693546136466125	-0.006852452800508941	
C	0.8151151337703114	1.1680907710572688	0.003947315006017398	
C	-0.7913001524214414	-1.1552150301479864	0.0066052381710322424	
C	0.6214454965559435	-1.2791954761273525	-0.0003598496098827807	
C	1.397122216049348	-0.10419730267712653	-0.00803009535986454	
H	-2.5073044303440835	0.09134865716147109	-0.004154708276828136	
H	-1.126274694296096	2.217585480604025	0.06463897254710099	
H	-1.4293847021934816	-2.046278656079899	-0.0311249545745233	
H	1.0526677186161175	-2.2551327051126187	0.029417669936853987	
H	2.492955724878248	-0.13547192466520638	0.027412558199858595	
H	1.433120588010344	2.035367928858743	-0.005576535722713537	
12

C	-1.4218779311659122	0.10894974474381415	-0.00212915892493529	
C	-0.6147187879645657	1.269901544481869	-0.006995675703036577	
C	0.8157382807172281	1.1685125520701198	0.004013119707497794	
C	-0.7917476232621864	-1.1555619003421762	0.0067532024432953195	
C	0.6218748456532945	-1.2798171361956547	-0.00035929437732298554	
C	1.3977380428033712	-0.10423412038501559	-0.008203539356200076	
H	-2.508277547566687	0.09005490032324692	-0.004290581148637552	
H	-1.1273905766981605	2.2182969683560407	0.06614189515362627	
H	-1.4294925947857298	-2.045714242118802	-0.03177353237008066	
H	1.0534350910710797	-2.25776297267339	0.03003249197920125	
H	2.4926907837827352	-0.13479399652653956	0.027998129730904087	
H	1.4355408917578107	2.0375615189611818	-0.005633044759307318	
12

C	-1.4227857425901038	0.10896067070849443	-0.0021834749639573383	
C	-0.6151026162761724	1.2704567369098354	-0.00713751991474436	
C	0.8163563034609215	1.1689371194786966	0.004076942134566393	
C	-0.7922070925554884	-1.1559168929047619	0.006900542383806696	
C	0.6223057383275605	-1.2804416454694498	-0.00035801115096227565	
C	1.3983712324224824	-0.10427161244312846	-0.008375662399122486	
H	-2.509256710732229	0.08881984782875124	-0.004428805826726083	
H	-1.1284908748992044	2.2190553100681027	0.06764235805344028	
H	-1.4295762154501543	-2.04514531083714	-0.03241611082555974	
H	1.0542490054290397	-2.26044597876882	0.030639947026014257	
H	2.4924103113648117	-0.1341494024029278	0.028579141220299985	
H	1.4379927893711306	2.0398211999429092	-0.005684195587105787	
12

C	-1.4236955405872165	0.10896455784659244	-0.0022381720202972323	
C	-0.6154938932667797	1.2710200328372447	-0.007277950747216271	
C	0.8169694049246624	1.1693647786294794	0.0041387371830753075	
C	-0.7926782383602481	-1.1562795336191327	0.007047249427687567	
C	0.6227382250421426	-1.2810692126084764	-0.0003559705479592985	
C	1.3990212553444197	-0.1043097100496769	-0.00854643204096365	
H	-2.5102415572544117	0.08764414265925558	-0.004569413088513483	
H	-1.129574267808164	2.2198587189898165	0.06914023479065311	
H	-1.4296371168862316	-2.0445743599301966	-0.033052641003387714	
H	1.055106472056214	-2.263174593862151	0.03123967625867636	
H	2.492117166187811	-0.13353866260021344	0.02915555012947168	
H	1.44047049649016	2.042139171472806	-0.005729851406341612	
12

C	-1.4246068976787836	0.10896133735646041	-0.0022932615671299277	
C	-0.6158926085206157	1.2715912758274617	-0.0074169330663031	
C	0.8175777966234345	1.1697958357204232	0.004198460139307615	
C	-0.793160728074504	-1.1566493427831812	0.007193315476133503	
C	0.6231723580837817	-1.2817000511926961	-0.00035314274276160496	
C	1.39968756681303	-0.10434834286242689	-0.008715816214177769	
H	-2.5112317111335622	0.08652838727716594	-0.004712432558276112	
H	-1.130639422212021	2.22070532859205	0.07063539000667579	
H	-1.429676923859292	-2.0440039631473423	-0.03368308132716804	
H	1.0560044471277985	-2.265941591588199	0.03183131340030348	
H	2.491814307208024	-0.13296227429690455	0.02972732059113804	
H	1.4429681801140737	2.0445075681192817	-0.005769876817529122	
12

C	-1.4255193894784723	0.10895094771215899	-0.002348754972482814	
C	-0.6162987501116963	1.2721703106333333	-0.007554431321057661	
C	0.8181816964701831	1.1702305947036984	0.004256066731815073	
C	-0.793654219132015	-1.1570258359942944	0.007338732884217612	
C	0.6236081905744221	-1.2823343770261904	-0.0003494975625880944	
C	1.4003696077386516	-0.10438743906737825	-0.008883783244527025	
H	-2.512226783334268	0.08547314337850088	-0.004857892698708931	
H	-1.1316849969868072	2.221593199996847	0.07212767965003611	
H	-1.4296973275081535	-2.04343676223802	-0.03430739749831971	
H	1.056939847304683	-2.2687396823620243	0.03241448592190514	
H	2.491504784318844	-0.1324207109493963	0.030294423348367894	
H	1.4454799859694538	2.0469184974666517	-0.005804138319327205	
12

C	-1.4264325948424552	0.10893333467669819	-0.0024046634810747933	
C	-0.6167123042549519	1.2727569827162692	-0.007690409577683455	
C	0.8187813266420303	1.1706693543140099	0.004311513182434938	
C	-0.7941583597333244	-1.1574085249675135	0.007483494445367342	
C	0.6240457755177238	-1.2829724055084708	-0.0003450045861318592	
C	1.4010668056158546	-0.10442692546383124	-0.009050301861077139	
H	-2.5132263721942985	0.08447893167249733	-0.00500582080303735	
H	-1.132709647362099	2.222520329524155	0.07361695124889583	
H	-1.429700079291615	-2.042875458442301	-0.034925562368217554	
H	1.0579095640189178	-2.2715615462040084	0.0329888162906446	
H	2.4911917283368727	-0.1319144217280753	0.03085683564869195	
H	1.4480000650569802	2.0493640769634993	-0.00583250479873402	
12

C	-1.4273460960128774	0.1089084513108161	-0.0024609981963853635	
C	-0.617133254970574	1.2733511377584796	-0.007824831558457136	
C	0.819376911515898	1.171112405200796	0.0043647562561619285	
C	-0.7946727895897685	-1.1577969183888024	0.007627593372414652	
C	0.6244851648550742	-1.2836143490653344	-0.00033963324504931796	
C	1.4017785754923568	-0.10446672755319458	-0.009215341202688453	
H	-2.5142300638643627	0.0835462316869752	-0.005156242987879126	
H	-1.133712029214345	2.2234846563144517	0.07510304424363919	
H	-1.4296869845807194	-2.0423228035334438	-0.03553755576388305	
H	1.0589104774213103	-2.274399864872603	0.03355392325705067	
H	2.490878340438355	-0.1314438309851265	0.031414541091845695	
H	1.4505225994706583	2.0518364696300813	-0.005854848011709659	
12

C	-1.4282594787569647	0.10887625798019421	-0.002517770063042008	
C	-0.6175615837654939	1.2739526212159538	-0.007957660681512036	
C	0.8199686757659234	1.1715600273174789	0.004415753307724055	
C	-0.7951971406934553	-1.1581905228020397	0.007771023275398716	
C	0.6249264085939263	-1.2842604147450354	-0.0003333529243398694	
C	1.4025043209885988	-0.10450676963091725	-0.009378870820861406	
H	-2.51523743277759	0.08267548159877287	-0.005309184187047055	
H	-1.13469080309106	2.224484069483496	0.07658579033246708	
H	-1.4296598959291569	-2.04178159045515	-0.03614336426725146	
H	1.0599394694522037	-2.2772473520785708	0.03410942313314278	
H	2.4905678810610214	-0.1310093377524567	0.03196752942997237	
H	1.4530418261352291	2.054327916793934	-0.005871043030295026	
12

C	-1.429172332496025	0.10883672235658026	-0.002574989849532701	
C	-0.6179972693140132	1.2745612778734001	-0.008088860104091848	
C	0.8205568429065878	1.172012487967673	0.004464462319888128	
C	-0.7957310381244219	-1.1585888434993636	0.007913778137162772	
C	0.6253695540432317	-1.284910802010107	-0.00032613306011467175	
C	1.403243435349441	-0.10454697488089719	-0.00954086067945563	
H	-2.516248042142836	0.08186707809028183	-0.005464668146467617	
H	-1.135644638181657	2.2255164152124527	0.07806501386191211	
H	-1.4296207062059028	-2.0412546438071524	-0.036742980958758685	
H	1.0609934358855675	-2.280096781426613	0.03465493104101245	
H	2.490263658495776	-0.13061131527607983	0.03251579632721365	
H	1.455552055055664	2.05683076309797	-0.0058809685973660875	
12

C	-1.4300842504324167	0.10878981940661281	-0.0026326681312732482	
C	-0.6184402871259235	1.2751769513653186	-0.00821839277366558	
C	0.8211416341870346	1.1724700403441608	0.004510841935243091	
C	-0.7962741008998305	-1.1589913854584923	0.008055852284663483	
C	0.6258146453699323	-1.2855657012649873	-0.0003179432149253664	
C	1.4039953025386176	-0.10458726547310962	-0.00970128115076581	
H	-2.517261444460898	0.0811213762314204	-0.005622717420356943	
H	-1.136572216539122	2.2265795043350614	0.0795405323122978	
H	-1.429571341258848	-2.0407448097154743	-0.03733640510105691	
H	1.062069294539011	-2.2829410056427384	0.03519006189636444	
H	2.489969017046815	-0.13025011058312638	0.03305934307310751	
H	1.458047683444553	2.0593374757333356	-0.005884507407810784	
12

C	-1.430994829672641	0.10873553137337055	-0.0026908152739608046	
C	-0.6188906092220814	1.2757994837042073	-0.008346221482865304	
C	0.8217232671315194	1.1729329215907875	0.004554851491844564	
C	-0.7968259428545293	-1.159397654314052	0.00819724035692778	
C	0.6262617230331401	-1.2862252921109683	-0.00030875316412557065	
C	1.404759298401475	-0.10462756266287883	-0.009860103007345354	
H	-2.518277182060832	0.08043868938733167	-0.005783353367546974	
H	-1.1374722372552784	2.227671119875514	0.08101215682975015	
H	-1.4295137522299588	-2.040254945252594	-0.0379236417683202	
H	1.0631639949284726	-2.285772979126741	0.035714431527218385	
H	2.489687324466978	-0.12992604407330594	0.03359817624070567	
H	1.4605232140317435	2.061840669457566	-0.005881546446699397	
12

C	-1.4319036713484974	0.1086738477515553	-0.002749441417996949	
C	-0.619348203818396	1.2764287148187856	-0.008472308927850258	
C	0.8223019542922397	1.1734013511755077	0.00459645105659311	
C	-0.7973861735442446	-1.1598071573560451	0.008337937268057547	
C	0.6267108231987791	-1.286889741560117	-0.00029853298764433086	
C	1.4055347918691707	-0.10466778689425484	-0.010017297408052366	
H	-2.519294787655639	0.07981928915018481	-0.0059465961534268625	
H	-1.1383434205653145	2.228789024501885	0.08247969280797612	
H	-1.4294499075999028	-2.039787907511921	-0.03850470142623779	
H	1.0642745281472445	-2.2885857809994716	0.03622765785191339	
H	2.489421958961563	-0.12963940914235772	0.03413230728330246	
H	1.4629732708141918	2.0643331279863557	-0.005871977283601823	
12

C	-1.4328103807323747	0.10860476525723556	-0.0028085564621864114	
C	-0.6198130350229646	1.2770644821017039	-0.008596617770176444	
C	0.8228779020180298	1.17387552930361	0.004635601454398148	
C	-0.7979543991625256	-1.160219404550781	0.00847793816903617	
C	0.6271619772477623	-1.2875592025037046	-0.0002872531528871443	
C	1.4063211462065506	-0.10470785790326927	-0.010172835881825696	
H	-2.5203137849065684	0.07926340529672134	-0.006112464748260292	
H	-1.1391845118611112	2.2299309678628854	0.0839429404988245	
H	-1.4293817849877821	-2.039346542370595	-0.039079599459119	
H	1.0653979354620198	-2.291372635209356	0.03672936195489696	
H	2.4891762958108896	-0.12939047183425376	0.03466175209326118	
H	1.4653926145690392	2.0668078250245854	-0.00585569634721899	
12

C	-1.4337145673440157	0.10852828779751006	-0.002868170049723268	
C	-0.6202850625524546	1.2777066199650362	-0.008719110700596416	
C	0.8234513093502798	1.1743556355125142	0.004672264294136909	
C	-0.7985302234477459	-1.1606339095605074	0.008617238405510028	
C	0.627615211280321	-1.2882338122141734	-0.00027488459824578384	
C	1.407117720297874	-0.10474769481867705	-0.01032669030723095	
H	-2.5213336890226006	0.07877122576903833	-0.006280976929286302	
H	-1.1399942856090075	2.2310946937907996	0.08540169567754599	
H	-1.4293113629328924	-2.038933673248314	-0.0396483556640875	
H	1.0665313167687955	-2.294126930307339	0.03721916918044113	
H	2.4889536936319976	-0.1291794705237151	0.035186530512166726	
H	1.4677761568775267	2.06925794320147	-0.005832605159833638	
12

C	-1.4346158450478492	0.10844442644712088	-0.0029282915535493045	
C	-0.6207642414779133	1.2783549594007249	-0.008839750506153505	
C	0.8240223670636337	1.1748418274744314	0.004706401991776683	
C	-0.7991132484211196	-1.1610501906912476	0.008755833478310835	
C	0.6280705455645023	-1.2889136909662458	-0.00026139881259995833	
C	1.4079238698862278	-0.10478721627120773	-0.010478832890558268	
H	-2.5223540073477158	0.07834289668242071	-0.006452149284272466	
H	-1.1407715491468986	2.2322779473371397	0.0868557503248575	
H	-1.4292406133467725	-2.038552090820872	-0.04021099376191298	
H	1.06767183838267	-2.29684223766222	0.037696710173886525	
H	2.4887574812539897	-0.1290066156470041	0.03570666582807314	
H	1.4701189724552997	2.0716768906361374	-0.005802610537199291	
12

C	-1.4355138321594472	0.108353199403583	-0.0029889300626467622	
C	-0.62125052196279	1.2790093275790169	-0.008958500138529748	
C	0.8245912567727957	1.1753342399215978	0.004737977790324496	
C	-0.799703075302938	-1.1614677719531514	0.00889371899554831	
C	0.6285279941353636	-1.2895989408148045	-0.0002467679107742685	
C	1.4087389488043742	-0.10482634050418153	-0.010629236141957479	
H	-2.5233742399630197	0.07797852235707711	-0.006625997216754964	
H	-1.1415151463220716	2.2334784815697137	0.08830489333714904	
H	-1.4291714929116348	-2.038204541282369	-0.0407675407959986	
H	1.0688167400813091	-2.2995123279380376	0.038161621869350765	
H	2.4885909447751073	-0.12887208946894005	0.036222184249190915	
H	1.4724163105075774	2.07405831613269	-0.0057656247568905784	
12

C	-1.4364081515506149	0.10825463193674886	-0.0030500943689481318	
C	-0.6217438490192086	1.2796695474742097	-0.00907532278334853	
C	0.8251581501569211	1.175832983749091	0.00476695577617064	
C	-0.800299305485258	-1.161886184148868	0.009030890620994929	
C	0.6289875644907429	-1.2902896445309564	-0.0002309647039177888	
C	1.4095623103443933	-0.10486498549029176	-0.010777872843047964	
H	-2.5243938802948738	0.07767816537437275	-0.0068025349529015735	
H	-1.142223960934954	2.2346940640699735	0.08974891125095216	
H	-1.4291059341922627	-2.0378937142202855	-0.04131802647316304	
H	1.0699633413650602	-2.3021311857461124	0.038613548412945384	
H	2.4884573130472307	-0.1287760458435597	0.03673311427745228	
H	1.4746636046334893	2.076396122348713	-0.005721565689090195	
12

C	-1.4372984307516665	0.1081487563342776	-0.0031117929549002513	
C	-0.6222441622691871	1.280335437497614	-0.009190181932084122	
C	0.8257232084551321	1.1763381455093318	0.00479330088933637	
C	-0.8009015415070446	-1.1623049659666373	0.009167344019857927	
C	0.6294492573294429	-1.290985864642377	-0.00021396276613001836	
C	1.4103933086427052	-0.1049030690532746	-0.010924716010826355	
H	-2.5254124157271933	0.07744184665726123	-0.006981775550024411	
H	-1.1428969201143846	2.2359224833623434	0.09118758900262312	
H	-1.4290458366907157	-2.0376222304175045	-0.041862482463053644	
H	1.0711090471884044	-2.3046930230433977	0.03905214203842342	
H	2.4883597430282562	-0.1287186099987349	0.03723948604061652	
H	1.476856479405239	2.0786844743573734	-0.0056703568594916	
12

C	-1.4381843020512677	0.10803561184270034	-0.003174033981684672	
C	-0.6227513957149471	1.2810068111500506	-0.009303041455085937	
C	0.8262865823016395	1.1768497873693666	0.004816978926447826	
C	-0.8015093880237001	-1.1627236650684998	0.009303074802494312	
C	0.6299130663233187	-1.2916876425819253	-0.00019573649718578466	
C	1.4112313000697676	-0.10494050896855936	-0.011069738858083635	
H	-2.5264293282173513	0.07726954557468714	-0.007163730906701043	
H	-1.14353299753547	2.2371615551173845	0.09262071070567991	
H	-1.4289930579316201	-2.037392629698826	-0.04240094166308342	
H	1.072251353183994	-2.307192291329761	0.03947706389403887	
H	2.4883013051032443	-0.12869987834356816	0.0377413305873967	
H	1.4789907528682704	2.0809178025645916	-0.005611927432746366	
12

C	-1.4390654025941332	0.10791524460460429	-0.003236825278111044	
C	-0.6232654775358814	1.2816834766964083	-0.009413865675473839	
C	0.8268484113183625	1.1773679467503002	0.0048379565464648465	
C	-0.8021224527693899	-1.1631418391724542	0.009438078466149843	
C	0.6303789779616065	-1.2923949980232898	-0.000176261177896253	
C	1.4120756446231633	-0.10497722307842584	-0.01121291475121203	
H	-2.5274440949105434	0.07716120007084827	-0.007348411774437806	
H	-1.144131216467912	2.2384091281092964	0.09404806044112639	
H	-1.4289494045913447	-2.037207358835831	-0.04293343743030639	
H	1.073387849955461	-2.309623691644565	0.03988798477851158	
H	2.488284968524508	-0.12871991829845666	0.0382386791527234	
H	1.4810624419215697	2.0830908096276883	-0.0055462122293946856	
12

C	-1.439941374474911	0.10778770759500342	-0.0033001743302029287	
C	-0.6237863298696468	1.2823652368576823	-0.009522619443153399	
C	0.8274088238639209	1.1778926362534639	0.004856201271611255	
C	-0.8027403475140302	-1.1635590571309733	0.00957235033459542	
C	0.6308469715048961	-1.2931079284867544	-0.0001555130144483193	
C	1.412925707322659	-0.1050131294148817	-0.0113542171652569	
H	-2.5284561887528882	0.07711670681924937	-0.007535827770826727	
H	-1.1446906526503446	2.2396630899186465	0.0954694230571429	
H	-1.4289166236534516	-2.0370687594808716	-0.04346000277918812	
H	1.0745162260081034	-2.311982181372038	0.0402845857424484	
H	2.4883135869409956	-0.1287787681435218	0.03873156239261945	
H	1.4830677653300306	2.0851984741122296	-0.005473151692089501	
12

C	-1.440811864827991	0.10765306055718477	-0.0033640882714703266	
C	-0.624313868511141	1.2830518885149924	-0.009629268207964498	
C	0.8279679366856545	1.178423843610766	0.004871681485862768	
C	-0.8033626890117443	-1.163974899986562	0.009705885496878052	
C	0.6313170190407913	-1.293826409173893	-0.00013346917302137527	
C	1.4137808596020986	-0.10504814632461659	-0.011493619636299544	
H	-2.529465079100098	0.07713592140040104	-0.00772598739411237	
H	-1.1452104369848495	2.2409213723714134	0.09688458497451147	
H	-1.4288963937523014	-2.0369790563518357	-0.04398066955936832	
H	1.0756342695294674	-2.3142629783460813	0.04066655856949347	
H	2.488389884044517	-0.12887643688227154	0.03922000959074633	
H	1.4850031466268996	2.0872360540088675	-0.005392691837704592	
12

C	-1.441676525893121	0.10751136996648604	-0.0034285738740196707	
C	-0.6248480027719767	1.2837432224142586	-0.009733778093719326	
C	0.8285258546335045	1.1789615315541189	0.004884366434236328	
C	-0.8039890999037719	-1.164388961996501	0.009838678745689666	
C	0.6317890854316431	-1.2945503926083903	-0.00011010782083418351	
C	1.4146404806727326	-0.10508219259834971	-0.01163109571229951	
H	-2.530470232320746	0.07721865850320538	-0.007918898039060328	
H	-1.1456897580473009	2.2421819567054233	0.09829333499426131	
H	-1.4288903167931952	-2.036940345787184	-0.04449546762233453	
H	1.0767398711898444	-2.316461567228488	0.04103360633173786	
H	2.488516439608796	-0.12901290412276267	0.03970404785059253	
H	1.4868652176611565	2.089199091158832	-0.005304784207504992	
12

C	-1.4425350150602194	0.10736270901811079	-0.003493637540481991	
C	-0.6253886353898941	1.2844390228685731	-0.009836115971853509	
C	0.8290826704272051	1.1795056377480717	0.004894226220333255	
C	-0.8046192095897023	-1.1648008516238395	0.009970724515678977	
C	0.6322631282911962	-1.295279808331316	-0.000085408163662142	
C	1.415503958842009	-0.10511518761697897	-0.011766618902772025	
H	-2.531471112393101	0.07736469215003597	-0.008114566013947458	
H	-1.1461278644091342	2.243442878459993	0.09969546510420792	
H	-1.4288999098669763	-2.0369545846902386	-0.045004423980367816	
H	1.077831026618704	-2.3185737050681805	0.041385443898032274	
H	2.488695676012563	-0.129188119974691	0.040183701279502944	
H	1.4886508216050574	2.09108341495346	-0.005209385796875686	
12

C	-1.4433869949540736	0.10720715754692182	-0.0035592852962409113	
C	-0.6259356624129695	1.2851390675463619	-0.009936249534781783	
C	0.8296384644973683	1.1800560748329412	0.004901231801565011	
C	-0.805252655070578	-1.1652101924850498	0.010102016822316342	
C	0.632739098041486	-1.2960145628238235	-0.000059350473709362405	
C	1.4163706928030184	-0.10514705148478477	-0.01190016262792337	
H	-2.532467181493286	0.07757375594597148	-0.008312996558437516	
H	-1.146524066772591	2.2447022320846846	0.10109077128132973	
H	-1.4289265975189924	-2.037023579944294	-0.04550756196512972	
H	1.0789058377977563	-2.320595424332526	0.041721798324654	
H	2.4889298452922777	-0.12940200496033882	0.040658990168851515	
H	1.4903570150272216	2.092885144758183	-0.005106458959174009	
12

C	-1.4442321335184973	0.10704480194427603	-0.0036255227823189	
C	-0.6264889731009264	1.2858431272843296	-0.01003414736838471	
C	0.830193304877689	1.1806127305460914	0.004905354982512042	
C	-0.8058890817502635	-1.1656166242518553	0.010232549201852868	
C	0.6332169379384923	-1.296754539387978	-0.0000319161180496961	
C	1.4172400928784425	-0.10517770516108167	-0.012031700167694247	
H	-2.5334579005744016	0.07784554335138895	-0.008514193862477112	
H	-1.1468777399141916	2.2459581752670577	0.10247905428705492	
H	-1.428971704432007	-2.037148978378949	-0.04600490039357179	
H	1.0799625147129641	-2.32252303647245	0.042042409249927006	
H	2.4892210168206206	-0.12965444993754394	0.04112993017711036	
H	1.491981069299455	2.0946006914362836	-0.00499597128861914	
12

C	-1.4450701041161667	0.10687573509298763	-0.003692355251683176	
C	-0.6270484498755307	1.286550965924852	-0.010129779027334659	
C	0.8307472471732597	1.1811754678722883	0.004906568409957599	
C	-0.8065281441449724	-1.1660198035125067	0.010362314650168455	
C	0.6336965840503408	-1.2974995980438755	-0.000003087582795720349	
C	1.4181115822016686	-0.10520707055227367	-0.012161204611223159	
H	-2.53444272988958	0.0781797079541248	-0.008718161068557037	
H	-1.1471883244273038	2.2472089329619718	0.10386012052706786	
H	-1.4290364486133698	-2.037332257415834	-0.04649645276209236	
H	1.0809993770240234	-2.3243531354481775	0.04234702926316399	
H	2.4895710657568655	-0.12994531605271584	0.04159653150082659	
H	1.4935204715460968	2.096226758227004	-0.004877895496357085	
12

C	-1.4459005855772378	0.10670005624396699	-0.003759787559115991	
C	-0.6276139681702047	1.2872623401715604	-0.010223115099632864	
C	0.831300334404296	1.1817441253125915	0.004904845554708017	
C	-0.8071695066779019	-1.1664194045392853	0.010491305574215602	
C	0.6341779653692172	-1.2982495754432004	0.00002715149964450879	
C	1.418984597855641	-0.1052350707258926	-0.012288648806572754	
H	-2.5354211296422404	0.07857586383562704	-0.008924900330491278	
H	-1.1474553283064686	2.2484528011850253	0.10523378267275352	
H	-1.4291219350117026	-2.0375747162728595	-0.046982226419492214	
H	1.0820148554444289	-2.326082600594028	0.04263542426029369	
H	2.4899816621582276	-0.13027443464726693	0.04205879813061538	
H	1.4949729252180648	2.0977603412142187	-0.004752209242508662	
12

C	-1.4467232622947643	0.10651787094467711	-0.003827824156244126	
C	-0.6281853963584835	1.287976999469198	-0.010314127273031238	
C	0.8318525969795285	1.1823185171385318	0.004900160707208368	
C	-0.807812844299595	-1.1668151200217565	0.010619513732638156	
C	0.6346610038326549	-1.299004284868646	0.00005881632674032296	
C	1.4198585919187527	-0.10526163000577875	-0.012414005315043797	
H	-2.5363925604879696	0.07903358589074054	-0.009134412814222184	
H	-1.1476783283131893	2.2496881504763784	0.10659986050019514	
H	-1.4292291498081622	-2.037877468087869	-0.04746222182315625	
H	1.08300749292764	-2.3277085989215838	0.04290737371895437	
H	2.4904542611423475	-0.13064160723036222	0.04251672706319226	
H	1.4963363501803977	2.09919872906252	-0.004618894973683306	
12

C	-1.447537824301817	0.10632929094734699	-0.0038964690878023848	
C	-0.628762595721167	1.2886946859091262	-0.010402788404548172	
C	0.8324040526988562	1.182898433697909	0.004892488963878614	
C	-0.8084578430784386	-1.167206661718098	0.010746930187913726	
C	0.6351456143771588	-1.2997635162606214	0.00009192091136226997	
C	1.4207330324394318	-0.10528667410871152	-0.012537246364865477	
H	-2.5373564840696377	0.07955241019384546	-0.009346698719760562	
H	-1.147856971163473	2.250913429099709	0.10795818162574654	
H	-1.429358955302049	-2.038241432837434	-0.04793643181103938	
H	1.0839759456513216	-2.329228586916704	0.04316267095243075	
H	2.4909900939793337	-0.13104660544408428	0.04297030757043832	
H	1.4976088825243261	2.1005395024165563	-0.00447793975003183	
12

C	-1.4483439673460576	0.1061344341149337	-0.003965725987221736	
C	-0.6293454204335441	1.2894151341569695	-0.010489072586015639	
C	0.8329547067697972	1.1834836417523766	0.004881806214158585	
C	-0.8091042007251261	-1.1675937610292484	0.010873545261192262	
C	0.6356317050047048	-1.3005270362895185	0.00012647806630801837	
C	1.42160740432576	-0.10531013029263328	-0.012658343809012238	
H	-2.5383123635361726	0.08013183438685	-0.009561757306172996	
H	-1.147990974531638	2.2521271659636417	0.10930858222509666	
H	-1.4295120854662469	-2.0386673311612777	-0.04840484092183964	
H	1.084918983760087	-2.3306403117253547	0.043401123331947025	
H	2.491590160240309	-0.1314891710379831	0.04341952050986758	
H	1.4987888741507218	2.1017805330054675	-0.004329335049165325	
12

C	-1.4491413929671717	0.10593342431832099	-0.004035598072729469	
C	-0.6299337175653626	1.2901380714084458	-0.010572955206716316	
C	0.8335045518469336	1.1840738848379282	0.004868089126879381	
C	-0.8097516270445748	-1.1679761694921145	0.010999348491257378	
C	0.6361191768465855	-1.3012945884562976	0.00016249939248953548	
C	1.4224812101401934	-0.10533192749644836	-0.01277726908643721	
H	-2.53925966404734	0.08077131809043601	-0.009779586913036004	
H	-1.1480801278702375	2.253327973267308	0.11065090773298149	
H	-1.4296891422068154	-2.0391556791406327	-0.04886742477139273	
H	1.0858354919784499	-2.3319418119863102	0.043622552460449944	
H	2.4922552210672615	-0.13196901585598134	0.043864337678543516	
H	1.499874892078261	2.1029199823813434	-0.004173076565562581	
12

C	-1.4499298085680072	0.10572639133618059	-0.004106088144139371	
C	-0.6305273271004165	1.2908632173617849	-0.010654413014368995	
C	0.8340535680658181	1.1846688836197086	0.00485131513592835	
C	-0.8103998443131969	-1.1683536591878336	0.011124328598823341	
C	0.6366079242590306	-1.3020658931631806	0.00019999526883523845	
C	1.423353970761303	-0.10535199653267588	-0.012893993186616395	
H	-2.5401978532689427	0.08147028333916924	-0.010000184983739736	
H	-1.1481242930504982	2.2545145488755285	0.11198501351800236	
H	-1.429890592355169	-2.0397067840745056	-0.049324149489347234	
H	1.086724470112701	-2.333131418349858	0.04382679432130571	
H	2.492985793625577	-0.1324858218364191	0.04430472122186575	
H	1.5008657177646874	2.103956300700815	-0.004009164000344599	
12

C	-1.4507089274777973	0.10551347075973297	-0.004177198580041058	
C	-0.6311260819770448	1.2915902842040505	-0.01073342417363127	
C	0.8346017230537544	1.1852683362173402	0.0048314624256800675	
C	-0.8110485875953173	-1.16872602306013	0.011248473456572695	
C	0.6370978349149936	-1.302840647827614	0.00023897484437332382	
C	1.4242252259584995	-0.10537027025679942	-0.013008486619023008	
H	-2.54112640185564	0.08222811503912708	-0.01022354808873475	
H	-1.1481234048259485	2.255685678425563	0.11331076553204385	
H	-1.4301167654222902	-2.0403207412977724	-0.049774971223867696	
H	1.0875850334587074	-2.3342077537346935	0.04401369939831111	
H	2.4937821467856023	-0.13303924102530684	0.04474062310204704	
H	1.5017603466538607	2.104888225839751	-0.003837600846370058	
12

C	-1.4514784690165652	0.10529480388979792	-0.004248931335393581	
C	-0.6317298081589451	1.2923189766252121	-0.010809968322328388	
C	0.8351489719577805	1.1858719185225148	0.0048085099160355615	
C	-0.8116976048883322	-1.1690930751511115	0.01137177006458246	
C	0.6375887897727349	-1.3036185270390708	0.00027944603346000547	
C	1.4250945348834196	-0.10538668369524827	-0.013120719388034004	
H	-2.542044783919025	0.08304416144612628	-0.010449671948805984	
H	-1.1480774711204813	2.256840237164785	0.11462804093181025	
H	-1.430367852134152	-2.0409974320686244	-0.05021983572020746	
H	1.08841641313671	-2.3351697333672443	0.044183132769256	
H	2.494644298071281	-0.13362889560532293	0.04517198463220348	
H	1.5025579877104185	2.1057147825109808	-0.0036583941652833787	
12

C	-1.4522381585570654	0.10507053763113162	-0.004321287939534511	
C	-0.6323383247195326	1.2930489918525616	-0.010884026625110288	
C	0.835695257464702	1.1864792845132714	0.004782437246998035	
C	-0.8123466571761135	-1.1694546507451364	0.011494204532115375	
C	0.6380806630235164	-1.3043991827272468	0.0003214155130616004	
C	1.4259614764549922	-0.10540117417350774	-0.013230660973420218	
H	-2.542952477482279	0.0839177346655695	-0.010678551458286636	
H	-1.147986573146607	2.257977191527941	0.11593672867158265	
H	-1.4306439037588687	-2.0417365225464974	-0.05065867797835891	
H	1.0892179563713853	-2.3360165646455058	0.04433497417482132	
H	2.4955720119033242	-0.134254377943253	0.0455987360812651	
H	1.503258062972342	2.106435281425579	-0.0034715543568769732	
12

C	-1.4529877275840877	0.10484082438454796	-0.004394269494090236	
C	-0.6329514439206761	1.2937800197036022	-0.010955581824748078	
C	0.836240509792797	1.18709006656238	0.004753224762399577	
C	-0.8129955185230494	-1.1698106064078417	0.011615762067278585	
C	0.6385733221503954	-1.3051822443513947	0.0003648887202156852	
C	1.4268256496355871	-0.10541368144314624	-0.01333828031673015	
H	-2.543848964921007	0.08484811117379172	-0.010910180711314027	
H	-1.147850865357433	2.259095600458282	0.11723673006883303	
H	-1.4309448322299703	-2.0425374638710316	-0.0510914219923925	
H	1.0899891267301358	-2.336747746856241	0.044469118067640485	
H	2.4965647991565927	-0.13491525065844592	0.046020796355739566	
H	1.5038602071445353	2.107049318530391	-0.003277094918442217	
12

C	-1.4537269137501903	0.10460582193639795	-0.004467876672691843	
C	-0.6335689713006145	1.2945117426576072	-0.011024618288776262	
C	0.8367846466692516	1.1877038757362248	0.004720853493639892	
C	-0.813643976096111	-1.1701608199293356	0.011736426973204575	
C	0.6390666279833471	-1.3059673190993062	0.00040986985350623123	
C	1.4276866735976446	-0.1054241478056416	-0.01344354581404448	
H	-2.5447337333935995	0.08583453236080216	-0.011144553018407099	
H	-1.147670575229776	2.2601946164686226	0.1185279593278204	
H	-1.431270411061519	-2.0433994933448636	-0.05151798058308484	
H	1.0907295043286211	-2.33736307076747	0.04458547362897618	
H	2.497621918032554	-0.13561104671529628	0.04643807275577172	
H	1.5043642672505695	2.107556774344409	-0.003075032204124149	
12

C	-1.4544554609286922	0.10436569334610622	-0.004542109719806613	
C	-0.6341907057854673	1.2952438359477767	-0.011091122055084566	
C	0.8373275733078164	1.1883203020798647	0.004685305142625477	
C	-0.8142918301135988	-1.170505190174103	0.011856182652271145	
C	0.6395604347495192	-1.3067539920935098	0.0004563618740251427	
C	1.4285441877803249	-0.10543251823242693	-0.013546425315194191	
H	-2.5456062752591473	0.08687620509564928	-0.011381660932437487	
H	-1.1474460028868536	2.2612734864493858	0.11981034403837766	
H	-1.4316202770451885	-2.044321636709243	-0.05193825531299208	
H	1.0914387860087378	-2.3378626181071116	0.044683964773060324	
H	2.498742376246981	-0.13634126954285897	0.04685046081919856	
H	1.50477030234652	2.107957813403456	-0.00286538516946971	
12

C	-1.455173119264107	0.10412060682972038	-0.004616968450189283	
C	-0.6348164398143508	1.2959759676736804	-0.01115508087372021	
C	0.8378691823783847	1.1889389148898513	0.0046465620643376514	
C	-0.8149388937237715	-1.17084363683799	0.011975011617368327	
C	0.640054590119274	-1.307541826605313	0.0005043665086637173	
C	1.4293978518374504	-0.10543874048052147	-0.013646886129706283	
H	-2.5464660884836663	0.08797230231196683	-0.011621496270785642	
H	-1.1471775205593633	2.2623315522248264	0.12108382563610343	
H	-1.4319939327096833	-2.045302711492426	-0.052352136495582936	
H	1.0921167854882563	-2.3382467609297417	0.044764530126266126	
H	2.4999249345093473	-0.13710539318445175	0.04725784424804088	
H	1.5050785832985025	2.1082528838125922	-0.0026481751093212977	
12

C	-1.455879645223718	0.10387073563457543	-0.004692452248654603	
C	-0.6354459594647984	1.2967077989386775	-0.011216484245405233	
C	0.8384093539616874	1.1895592629722584	0.00460460724864556	
C	-0.8155849928018299	-1.1711761001164895	0.012092895510446204	
C	0.6405489352343711	-1.308330364276095	0.0005538842553434364	
C	1.4302473454772373	-0.1054427651991679	-0.013744895039434045	
H	-2.5473126770334322	0.08912196361338552	-0.011864050137300236	
H	-1.1468655718884675	2.263368250854758	0.12234835982516787	
H	-1.4323907495146126	-2.0463413313982293	-0.05275950329622477	
H	1.0927634334790364	-2.338516160864126	0.04482712298466734	
H	2.5011681112671735	-0.13790286248085964	0.04766009492052493	
H	1.5052895926139982	2.1084427168945004	-0.002423425387119658	
12

C	-1.4565748016412736	0.1036162579179062	-0.004768560070232825	
C	-0.6360790445474108	1.2974389839963878	-0.011275323456097396	
C	0.8389479554543123	1.1901808748831755	0.004559424300837776	
C	-0.8162299656272365	-1.1715025402901533	0.01220981512805897	
C	0.6410433046753738	-1.3091191253489296	0.0006049143905949346	
C	1.4310923681971388	-0.10544454601425476	-0.01384041831792536	
H	-2.5481455512569733	0.0903242958989953	-0.012109312943944635	
H	-1.146510671072621	2.264383114683524	0.12360391696224436	
H	-1.4328099717558922	-2.047435911709749	-0.05316022392542392	
H	1.093378777766292	-2.338671768224431	0.044871711248797345	
H	2.502470188676351	-0.13873309329022118	0.04805707298923196	
H	1.505404024309796	2.1085283269109643	-0.002191161155088732	
12

C	-1.457258357756054	0.10335735662437842	-0.0048452904406621625	
C	-0.6367154687621621	1.29816917041819	-0.011331591608523494	
C	0.8394848415109527	1.1908032591722486	0.00451099742219362	
C	-0.8168736625567865	-1.1718229372204323	0.012325750454651238	
C	0.6415375264874527	-1.3099076089143773	0.0006574549785992221	
C	1.4319326389232299	-0.10544403962395352	-0.013933421756751344	
H	-2.5489642282569904	0.09157837400868929	-0.012357274432035988	
H	-1.14611340186018	2.26537577113649	0.12485048239989284	
H	-1.4332507211437635	-2.048584675660116	-0.053554155922842316	
H	1.0939629832376756	-2.338714820959817	0.04489827733424828	
H	2.5038292197451604	-0.13959547274787415	0.048448627065010706	
H	1.5054227837915712	2.10851101082349	-0.0019514090643840245	
12

C	-1.4579300892482114	0.10309421936097217	-0.004922641457192009	
C	-0.6373549998784055	1.298897999280489	-0.011385283650164491	
C	0.8400198539953722	1.191425904623557	0.004459311389940905	
C	-0.8175159456500013	-1.1721372897646636	0.012440680703017173	
C	0.6420314222216581	-1.310695293164611	0.0007115028821536171	
C	1.4327678955507643	-0.10544120589720728	-0.01402387069845544	
H	-2.5497682322542787	0.09288324138870015	-0.012607923693043352	
H	-1.145674416389452	2.2663459422641163	0.1260880567877205	
H	-1.4337120020128258	-2.0497856617185146	-0.05394114653004434	
H	1.0945163318470108	-2.3386468434082697	0.04490681805651534	
H	2.5052430365960388	-0.14048935957131167	0.048834594485416036	
H	1.5053469877119332	2.10839234804835	-0.0017041969642817986	
12

C	-1.4585897782697506	0.10282703826960066	-0.005000610790148022	
C	-0.6379973999275153	1.2996251053701333	-0.011436396397262072	
C	0.8405528219274602	1.1920482804886599	0.0044043515374762735	
C	-0.8181566882412067	-1.1724456151161509	0.012554584360829889	
C	0.642524806974473	-1.3114816356715329	0.0007670537757003467	
C	1.4335978943990737	-0.10543600795969024	-0.014111730076102096	
H	-2.550557094941448	0.09423791077460224	-0.0128612491817272	
H	-1.1451944338786961	2.267293444032975	0.12731665632966874	
H	-1.4341927071151832	-2.051036731730698	-0.054321033149846105	
H	1.0950392224905816	-2.338469644810841	0.04489734449318927	
H	2.506709259773859	-0.1414140844114037	0.04921480166413967	
H	1.5051779638432725	2.1081742002563115	-0.0014495535966248128	
12

C	-1.4592372134692413	0.10255600990144786	-0.005079195683622791	
C	-0.6386424254090357	1.3003501174047354	-0.011484928555450039	
C	0.841083561405548	1.1926698366851134	0.004346103730650523	
C	-0.8187957744620621	-1.1727479480747642	0.012667439245977146	
C	0.6430174894297102	-1.3122660736882166	0.0008241021618590655	
C	1.4344224095838305	-0.1054284122718428	-0.0141969644588496	
H	-2.551330355827026	0.0956413648941008	-0.013117238749423853	
H	-1.1446742391633433	2.268218185361311	0.1285363129947075	
H	-1.4346916239409466	-2.052335579848723	-0.054693643884528555	
H	1.0955321707857104	-2.338185317541099	0.044869881800821236	
H	2.5082253085255415	-0.14236895025399887	0.049589064523656606	
H	1.5049172511894624	2.1078587115319047	-0.001187508261204848	
12

C	-1.4598721900146236	0.10228133508451519	-0.005158392957337425	
C	-0.6392898274997174	1.3010726582751804	-0.011530880735406996	
C	0.8416118755438664	1.193290004022493	0.004284554346232776	
C	-0.8194330987206587	-1.17304434025403	0.012779222565635264	
C	0.6435092719072875	-1.3130480244794134	0.0008826413892938831	
C	1.4352412323133494	-0.10541838869855477	-0.014279538103909462	
H	-2.5520875625741137	0.0970925571885634	-0.013375879657382097	
H	-1.144114681088285	2.269120166898771	0.12974707468264385	
H	-1.435207441517369	-2.0536797421776174	-0.055058798154743745	
H	1.0959958087074806	-2.3377962349850065	0.04482446901422988	
H	2.50978841197005	-0.14335323287288174	0.04995718899940993	
H	1.5045665998140498	2.1074483081672004	-0.0009180904851798507	
12

C	-1.4604945096129327	0.10200321878698893	-0.005238199008665096	
C	-0.6399393521703378	1.3017923453014117	-0.011574255463750821	
C	0.8421375543273268	1.1939081944613497	0.004219690246796741	
C	-0.8200685651602244	-1.1733348592290749	0.012889910982063416	
C	0.6439999504384323	-1.3138268856858033	0.0009426636741212991	
C	1.4360541701161482	-0.10540591057058131	-0.014359415013738086	
H	-2.552828271332381	0.09859041255293444	-0.013637158595998051	
H	-1.143516670752597	2.2699994795491043	0.13094900533937565	
H	-1.4357387576264282	-2.055066607065584	-0.05541630738905489	
H	1.0964308840752486	-2.337305049031237	0.04476115880654039	
H	2.511395621072322	-0.14436618133886853	0.05031897161674399	
H	1.504127970389881	2.106945698102392	-0.0006413296709429265	
12

C	-1.4611039805219628	0.10172186998336469	-0.005318609814892804	
C	-0.6405907403287762	1.302508790502594	-0.01161505718948853	
C	0.842660374498388	1.1945238013977149	0.0041514987545968616	
C	-0.8207020870825584	-1.173619587633762	0.012999480683481925	
C	0.6444893148549158	-1.3146020357366688	0.0010041601247964785	
C	1.436861046006989	-0.1053909547372239	-0.014436558998474866	
H	-2.5535520470662485	0.10013382809574894	-0.01390106170338663	
H	-1.1428811796090412	2.2708563027343303	0.1321421850217349	
H	-1.4362840863812667	-2.0564934259603063	-0.05576597577970598	
H	1.0968382597999589	-2.3367146869783406	0.04468001720585713	
H	2.5130438213297355	-0.14540701858889402	0.05067420013418239	
H	1.5036035334652322	2.106353870006521	-0.0003572547285938869	
12

C	-1.4617004175202304	0.10143750157234199	-0.005399620936054819	
C	-0.6412437281160469	1.303221600839099	-0.011653292286835823	
C	0.8431800995809167	1.1951361999765788	0.0040799676252602215	
C	-0.8213335863190814	-1.1738986222116572	0.013107907459728717	
C	0.644977148873823	-1.3153728343120608	0.0010671207709248805	
C	1.437661697588908	-0.1053735016070436	-0.014510933743614549	
H	-2.5542584638775496	0.10172167391615647	-0.014167574583476165	
H	-1.142209237422515	2.2716909024034324	0.13332670991069223	
H	-1.4368418661371045	-2.057957324798476	-0.05610760110182284	
H	1.0972189128754857	-2.336028347824059	0.0445811232673538	
H	2.5147297461843565	-0.14647494205565137	0.051022654254311677	
H	1.5029956683330632	2.105676091843276	-0.0000658936924320783	
12

C	-1.4622836418995073	0.10115033027583208	-0.005481227525826583	
C	-0.641898047189667	1.3039303785031788	-0.011688969049018014	
C	0.843696479950776	1.195744747449925	0.0040050850193581655	
C	-0.8219629925595966	-1.174172072844763	0.013215166782597512	
C	0.6454632301630161	-1.3161386228620326	0.0011315345976939182	
C	1.4384559761353606	-0.10535353515117028	-0.014582502882758504	
H	-2.5549471053287136	0.10335279390705315	-0.014436682319801903	
H	-1.1415019301216847	2.272503628792236	0.1345026922841492	
H	-1.4374104676498438	-2.0594553158445144	-0.05644097556114199	
H	1.0975739331729482	-2.3352494980494076	0.04446456871396642	
H	2.516449990843571	-0.1475691243418034	0.051364106377316476	
H	1.502306961354684	2.104915908731358	0.00023272666754800474	
12

C	-1.462853481481318	0.10086057642564424	-0.005563424317354321	
C	-0.6425534249860554	1.304634721301693	-0.011722097690550413	
C	0.844209252935845	1.1963487836015665	0.003926839474769257	
C	-0.8225902427125893	-1.1744400615037964	0.013321233888508283	
C	0.645947330510301	-1.316898725161869	0.001197389577469501	
C	1.4392437455959655	-0.10533104296218063	-0.014651230070459298	
H	-2.5556175647452455	0.10502600654479327	-0.014708369509891892	
H	-1.1407603973989002	2.273294913869003	0.13567026039266147	
H	-1.4379882024188548	-2.0609843097531404	-0.05676588676457098	
H	1.0979045218734929	-2.3343818666207943	0.044330457495223	
H	2.518201026495739	-0.14868871398126937	0.05169832241964186	
H	1.5015402038970913	2.10407714026316	0.0005385812914370005	
12

C	-1.4634097706111853	0.10056846383763951	-0.005646205637195001	
C	-0.6432095850164165	1.3053342230034828	-0.011752690332544289	
C	0.8447181429855748	1.1969476311629659	0.003845219876090772	
C	-0.8232152802247814	-1.174702721235684	0.013426083863214137	
C	0.6464292159390425	-1.3176524479283893	0.0012646727127559813	
C	1.4400248815974461	-0.10530601620393866	-0.014717079059055102	
H	-2.556269445532305	0.10674010572561902	-0.014982620258600678	
H	-1.1399858302862644	2.274065268563028	0.13682955831690197	
H	-1.4385733310228919	-2.062541127790162	-0.05708211863783936	
H	1.0982119897433762	-2.3334294395512196	0.0441789053509332	
H	2.519979214770223	-0.14983283622338475	0.052025062649860315	
H	1.500698389682137	2.10316387709234	0.0008516472331621123	
12

C	-1.4639523501556304	0.10027421965279697	-0.00572956540734993	
C	-0.6438662471699266	1.3060284737267824	-0.011780760985908079	
C	0.8452228619020534	1.1975405963724923	0.0037602154224191647	
C	-0.8238380543925035	-1.1749601951110837	0.013529691730512565	
C	0.6469086467992379	-1.3183990813500186	0.001333370073455017	
C	1.4407992704226562	-0.10527844961036055	-0.014780013779848127	
H	-2.5569023614857493	0.10849386160918463	-0.01525941820423435	
H	-1.1391794685546421	2.274815279709638	0.1379807457559917	
H	-1.4391640715876113	-2.064122514279397	-0.05738945240838311	
H	1.0984977558235172	-2.3323964553770455	0.04401003937242632	
H	2.521780822472877	-0.15100059388925188	0.05234408257071108	
H	1.4997847112377476	2.1021804762988565	0.0011719041121342737	
12

C	-1.464481067494521	0.09997807417389643	-0.005813497149297207	
C	-0.6445231280389748	1.3067170603478813	-0.011806325530005855	
C	0.845723109138589	1.1981269696238068	0.0036718155952741973	
C	-0.8244585196251908	-1.1752126351663124	0.013632032541244312	
C	0.6473853778939321	-1.3191378998056251	0.0014034668447546732	
C	1.4415668079831845	-0.10524834148551986	-0.014839998425202507	
H	-2.557515937101711	0.11028602147742224	-0.015538746534862384	
H	-1.1383425979810933	2.275545606733405	0.13912399775475395	
H	-1.4397586082557638	-2.0657251491244373	-0.05768766761130603	
H	1.0987633451071988	-2.331287398336789	0.043823997454023426	
H	2.5236020364294247	-0.15219106828336834	0.052655133827545664	
H	1.4988025556104048	2.101131555768198	0.0014993345714282363	
12

C	-1.4649957765090709	0.09968026069879667	-0.005897993988119378	
C	-0.645179941234492	1.3073995669283431	-0.011829401685876994	
C	0.8462185721298761	1.1987060261817384	0.0035800101252140473	
C	-0.8250766347930436	-1.1754602013883977	0.013733081459732092	
C	0.6478591586924592	-1.3198681626828632	0.0014749473801692276	
C	1.4423273989222518	-0.10521569370336707	-0.014896997523528225	
H	-2.558109807884404	0.11211531060799353	-0.01582058800396892	
H	-1.1374765474876036	2.276256978061532	0.14025950436941556	
H	-1.4403550991836076	-2.067345659716772	-0.057976543061479736	
H	1.0990103857073301	-2.3301069903871996	0.043620927679509834	
H	2.525438976726421	-0.1534033200898748	0.05295796503534833	
H	1.4977554994557412	2.1000219877443658	0.0018339247457027285	
12

C	-1.4654963375657084	0.09938101535011526	-0.005983048656661714	
C	-0.6458363977161229	1.3080755751627735	-0.011850008984257034	
C	0.8467089265167932	1.1992770267387751	0.003484788958047137	
C	-0.8256923626565129	-1.1757030607942063	0.01383281384317879	
C	0.6483297335318521	-1.3205891151534468	0.001547795254023754	
C	1.4430809556967334	-0.10518051169896628	-0.014950976016246644	
H	-2.558683620654575	0.11398043316232627	-0.016104924945747456	
H	-1.1365826861552066	2.2769501872723157	0.14138747027040044	
H	-1.440951683674	-2.068980631662286	-0.0582558577444352	
H	1.099240606261909	-2.328860183743799	0.04340098771422674	
H	2.5272877101589186	-0.15463639032440263	0.05325232263477335	
H	1.4966473054448284	2.0988568942355554	0.0021756647331723947	
12

C	-1.4659826174951573	0.0990805769009557	-0.0060686535006521285	
C	-0.6464922061331062	1.3087446648464356	-0.011868168727938054	
C	0.8471938365343712	1.1998392181907136	0.0033861422201593204	
C	-0.8263056692195287	-1.1759413863899857	0.013931205330971497	
C	0.6487968417903548	-1.3212999889023245	0.0016219933132138517	
C	1.4438273975698102	-0.10514280444377519	-0.01500189934121038	
H	-2.5592370338583055	0.11588007308940225	-0.016391739289659736	
H	-1.1356624201172931	2.2776260889836486	0.14250811428336496	
H	-1.4415464902136685	-2.070626620883813	-0.05852539182811588	
H	1.099455833612008	-2.327552154021481	0.043164344209777945	
H	2.5291442647427256	-0.15588930138474003	0.05353795182845486	
H	1.4954819167320803	2.097641639773666	0.00252454907863486	
