12

C	-5.031491794167008	2.896792524497892	-0.010607897420157863	
C	-4.175548390371167	4.102948817932104	-0.0063504347621310565	
C	-2.8340943884480905	4.039001819161031	0.028749757758698907	
C	-4.379529478186096	1.684121290743834	0.024364851318593703	
C	-3.0030138350221645	1.5730356304865754	-0.028791636521288053	
C	-2.166416883962306	2.6910632400075696	-0.011352672361769199	
H	-6.128463604304448	2.930971901502693	-0.06744455635594104	
H	-4.722436570664304	5.026056495783603	0.05581217006649374	
H	-5.080751226061639	0.8079077715019102	0.0651858466326993	
H	-2.6072599706788737	0.5277371885507978	0.021863626961987317	
H	-1.1556003868903348	2.7147161077895694	0.12976135096751124	
H	-2.140983777186714	4.752563552159768	-0.15765084037597937	
