12

C	-4.930614300814525	2.9550097347891326	0.008491817367866614	
C	-4.1931553746945305	4.085683241282886	0.04159171839684464	
C	-2.801745623046056	4.011772066544001	-0.025801864169552276	
C	-4.439916674072968	1.6418289218285491	-0.045950260524690395	
C	-2.987705947908778	1.5289086011189055	-0.004237918828534068	
C	-2.2555470301442404	2.749042270497403	0.006208481953916787	
H	-6.038297415217472	3.073833937207307	0.09126660054136497	
H	-4.748084086239662	5.022266635153869	-0.2154110185039937	
H	-5.009626940141681	0.6576268172954076	0.10565458781574712	
H	-2.368627460351892	0.655622791205215	0.18205643236281685	
H	-1.1345704242886014	2.636046117172008	0.032573311169309976	
H	-2.3147901650822758	4.888569582189904	0.03855669013254822	
