12

C	-5.03632531080408	2.9257907228575086	-0.02897912722455795	
C	-4.233919251681146	4.127659198187566	0.02414379945552767	
C	-2.811545754505173	3.9696963520253967	0.013641746937381976	
C	-4.379557475527181	1.6917178951648673	0.02551757760891692	
C	-2.9671657821360964	1.601417185241507	-0.0020951682045144224	
C	-2.1921525646581146	2.664735333642531	-0.04269590621264927	
H	-6.128015323788222	3.0803532525783335	0.031184103044866292	
H	-4.8590158662400365	4.986539612379648	-0.18072592575897378	
H	-4.88990319163075	0.7310479765836356	-0.02944614801615195	
H	-2.475750627326101	0.5946673390552889	0.12178913827690993	
H	-1.1094209828728865	2.711915226603723	0.010005131830446084	
H	-2.008962555738929	4.725481598515812	0.17193479853376706	
