12

C	-4.993929636553703	2.9227467439606953	0.08313001323419585	
C	-4.2226486081068435	4.106265375898728	0.010436896646716041	
C	-2.842379143036797	3.9642813227501303	-0.057393549666262776	
C	-4.359152520723606	1.7279031824610935	-0.09565175390269322	
C	-3.0178926256903575	1.580524733080976	0.05403710123573709	
C	-2.1544729219831624	2.657393049315946	0.048504870292051125	
H	-6.219219525270667	3.016898765933061	-0.0024714246868469325	
H	-4.673134079911747	5.003231023371743	-0.13212132737995025	
H	-4.92654597574944	0.7842761551320624	-0.009683182020291323	
H	-2.5523743895132376	0.5101487799272681	-0.3311216239233584	
H	-1.0769964090024442	2.817269220298263	0.13333268818047278	
H	-2.3826697330350144	4.959074466564412	-0.17106767594752	
