12

C	-4.9386519602286905	2.9285597073937257	0.031710469921467074	
C	-4.210298100622453	4.096658199586028	0.044200249110932135	
C	-2.784989272725838	3.964519221289766	-0.08185739374071327	
C	-4.4049334251594585	1.611065684282614	-0.04611599444557158	
C	-3.003951499702692	1.6014575889997549	-0.017520559430754888	
C	-2.2568242920939285	2.743368495236251	0.09027945015257655	
H	-6.0990371822385185	3.0686596371176704	0.050533164893336834	
H	-4.83975767075279	5.239939727042392	-0.07266063553783275	
H	-5.003997374959451	0.8064335516407092	-0.001681558785570217	
H	-2.44103047507594	0.8174115196049828	-0.11091544858713573	
H	-1.2117728989541168	2.61107524812948	0.11098369152693477	
H	-2.1257992697156505	4.706608916950966	-0.22286143094380761	
