12

C	-5.036454848866744	2.949603252864861	0.015859223921021584	
C	-4.189169730076184	4.01726164527653	-0.02418810579192624	
C	-2.8061819922350177	3.964591848017441	-0.03163583040439053	
C	-4.377472903163899	1.6580964112880285	-0.03310645579765294	
C	-3.023579746536765	1.6186738156096792	0.042011905058861654	
C	-2.1980149663159745	2.7557081797504908	0.0109371444540331	
H	-5.960108686066108	3.1490963575577453	0.15009568060256934	
H	-4.7030458105531805	5.066169073836119	0.09457891364137506	
H	-5.01855081266371	0.7169008581030046	-0.06005666270734713	
H	-2.447519009294912	0.6084606019077643	-0.05918248542957192	
H	-1.1264973833405758	2.5456489839144454	-0.12761391966951896	
H	-2.0937424904984736	4.9455157484690115	0.24195420658860922	
