12

C	-4.9935350315216	2.93215367294803	-0.0000000000015826373211123518	
C	-4.207506964438707	4.085704775625205	0.000000000001074943716906973	
C	-2.8154914938501485	3.981763233445804	-0.0000000000007151152979022834	
C	-4.387538860573604	1.6746608924660975	0.000000000001507479863251702	
C	-2.9955229361873212	1.5707192078143004	0.00000000000007350750785508628	
C	-2.2094950598629732	2.724270496454453	-0.0000000000003614955734779091	
H	-6.078879840563926	3.0131929343831274	0.000000000000262405566059189	
H	-4.680008454977493	5.066155785279683	-0.0000000000000777080831222492	
H	-5.000400157197788	0.7752483298295464	-0.00000000000036850181176210585	
H	-2.5230235492527897	0.5902672007206279	-0.0000000000002513082305994768	
H	-1.1241503742386842	2.643229658338346	0.0000000000002969157530538981	
H	-2.202627277334949	4.881173812694768	0.0000000000001415139108495277	
