12

C	-4.99247	2.93207	-0	
C	-4.20705	4.08474	-0	
C	-2.8160899999999995	3.98088	-0	
C	-4.38694	1.67554	-0	
C	-2.99598	1.57168	0	
C	-2.21056	2.7243500000000003	0	
H	-6.07618	3.01299	-0	
H	-4.67882	5.06373	-0	
H	-4.99887	0.77748	-0	
H	-2.52421	0.5927	0	
H	-1.12685	2.64343	0	
H	-2.20416	4.87895	-0	
12

C	-4.993196823640291	2.932127167040778	-0.0000000000000015051913667241684	
C	-4.207361300869686	4.085399764400104	0.00000000000000009376245624926894	
C	-2.815681650356676	3.9814839670416067	-0.00000000000000417743596064675	
C	-4.387348463916053	1.674939403917505	0.000000000000006852015586377098	
C	-2.995668807885647	1.5710235547132245	0.0000000000000026644624310579523	
C	-2.209833308240609	2.724295574529758	-0.000000000000004013635634012142	
H	-6.077823238712868	3.0131135509422093	-0.0000000000000008551029051570515	
H	-4.679547524659468	5.065205673117956	0.000000000000002156639878661463	
H	-4.999801967446198	0.7761215915815055	-0.000000000000000004765444000702171	
H	-2.5234865017362798	0.591219492726664	0.00000000000000022774476968570757	
H	-1.1252069812800916	2.6433079657144107	-0.0000000000000010324992551540618	
H	-2.203223431256128	4.880302294274274	-0.00000000000000040599455633661223	
12

C	-4.993549029679764	2.932150942668961	0.00000000000008341365262889396	
C	-4.207519799753844	4.085721280591044	-0.000000000000039249525610252037	
C	-2.815480476231243	3.9817814380390026	0.00000000000005379542278810472	
C	-4.387548982607861	1.6746409295063784	-0.00000000000010251117071739233	
C	-2.995510398987115	1.570701263274881	-0.000000000000036879821116470993	
C	-2.2094808701516415	2.724271358358328	0.00000000000004369470039905622	
H	-6.07886114868443	3.013191618565405	-0.0000000000000029775421448675178	
H	-4.679978403026961	5.066155685873797	-0.000000000000007771821768448825	
H	-5.000380701785272	0.7752489205352476	0.00000000000003754210555342662	
H	-2.523048535796608	0.5902683836946724	0.000000000000017520595779545576	
H	-1.1241686551115757	2.643231871204894	-0.000000000000027507054634128143	
H	-2.2026529981836744	4.881176307687381	-0.000000000000019069541157467133	
