12

C	-5.038246621161924	2.935341721289545	0.032778429902640786	
C	-4.261521937810411	4.1354910815519315	-0.004756818262799459	
C	-2.7784676992109407	3.9802879702147567	-0.026603383175316235	
C	-4.302421937946546	1.6712139563925386	-0.030846948747053148	
C	-2.9334547175362586	1.5981196356877057	-0.00003967954836178605	
C	-2.2695089837503057	2.669997175989734	0.05713662657225833	
H	-6.04451715348649	2.961372123414373	0.05732289381659772	
H	-4.687647102306828	5.110293931873776	-0.005197405698133001	
H	-5.062163981874815	0.8623594132316224	-0.09018729725710384	
H	-2.68885406173346	0.49895404258244364	-0.05734582135227345	
H	-1.2135726038215555	2.3342437346920257	-0.09525365299279831	
H	-2.2156037135576896	4.949291283536506	-0.13900009265120591	
